67
Lattice="11.45512985522207 0.0 0.0 5.727564927611035 9.92043345827187 0.0 0.0 0.0 43.01480577065395" Properties=species:S:1:pos:R:3:move_mask:L:1:tags:I:1 surface_element=Al miller="_JSON [1, 1, 1]" slab_size="_JSON [4, 4, 4]" vacuum_angstrom=18.0 fixed_layers=2 fixed_atom_indices="_JSON [0, 1, 2, 3, 4, 5, 6, 7, 8, 9, 10, 11, 12, 13, 14, 15, 16, 17, 18, 19, 20, 21, 22, 23, 24, 25, 26, 27, 28, 29, 30, 31]" system_name=al111_h2o adsorbate=H2O site=top orientation=dipole_down height_angstrom=2.0 structure_id=29c9ef207ffbfb5c pbc="T T T"
Al       0.00000000       0.00000000      18.00000000  F        4
Al       2.86378246       0.00000000      18.00000000  F        4
Al       5.72756493       0.00000000      18.00000000  F        4
Al       8.59134739       0.00000000      18.00000000  F        4
Al       1.43189123       2.48010836      18.00000000  F        4
Al       4.29567370       2.48010836      18.00000000  F        4
Al       7.15945616       2.48010836      18.00000000  F        4
Al      10.02323862       2.48010836      18.00000000  F        4
Al       2.86378246       4.96021673      18.00000000  F        4
Al       5.72756493       4.96021673      18.00000000  F        4
Al       8.59134739       4.96021673      18.00000000  F        4
Al      11.45512986       4.96021673      18.00000000  F        4
Al       4.29567370       7.44032509      18.00000000  F        4
Al       7.15945616       7.44032509      18.00000000  F        4
Al      10.02323862       7.44032509      18.00000000  F        4
Al      12.88702109       7.44032509      18.00000000  F        4
Al       1.43189123       0.82670279      20.33826859  F        3
Al       4.29567370       0.82670279      20.33826859  F        3
Al       7.15945616       0.82670279      20.33826859  F        3
Al      10.02323862       0.82670279      20.33826859  F        3
Al       2.86378246       3.30681115      20.33826859  F        3
Al       5.72756493       3.30681115      20.33826859  F        3
Al       8.59134739       3.30681115      20.33826859  F        3
Al      11.45512986       3.30681115      20.33826859  F        3
Al       4.29567370       5.78691952      20.33826859  F        3
Al       7.15945616       5.78691952      20.33826859  F        3
Al      10.02323862       5.78691952      20.33826859  F        3
Al      12.88702109       5.78691952      20.33826859  F        3
Al       5.72756493       8.26702788      20.33826859  F        3
Al       8.59134739       8.26702788      20.33826859  F        3
Al      11.45512986       8.26702788      20.33826859  F        3
Al      14.31891232       8.26702788      20.33826859  F        3
Al      -0.00000000       1.65340558      22.67653718  T        2
Al       2.86378246       1.65340558      22.67653718  T        2
Al       5.72756493       1.65340558      22.67653718  T        2
Al       8.59134739       1.65340558      22.67653718  T        2
Al       1.43189123       4.13351394      22.67653718  T        2
Al       4.29567370       4.13351394      22.67653718  T        2
Al       7.15945616       4.13351394      22.67653718  T        2
Al      10.02323862       4.13351394      22.67653718  T        2
Al       2.86378246       6.61362231      22.67653718  T        2
Al       5.72756493       6.61362231      22.67653718  T        2
Al       8.59134739       6.61362231      22.67653718  T        2
Al      11.45512986       6.61362231      22.67653718  T        2
Al       4.29567370       9.09373067      22.67653718  T        2
Al       7.15945616       9.09373067      22.67653718  T        2
Al      10.02323862       9.09373067      22.67653718  T        2
Al      12.88702109       9.09373067      22.67653718  T        2
Al       0.00000000       0.00000000      25.01480577  T        1
Al       2.86378246       0.00000000      25.01480577  T        1
Al       5.72756493       0.00000000      25.01480577  T        1
Al       8.59134739       0.00000000      25.01480577  T        1
Al       1.43189123       2.48010836      25.01480577  T        1
Al       4.29567370       2.48010836      25.01480577  T        1
Al       7.15945616       2.48010836      25.01480577  T        1
Al      10.02323862       2.48010836      25.01480577  T        1
Al       2.86378246       4.96021673      25.01480577  T        1
Al       5.72756493       4.96021673      25.01480577  T        1
Al       8.59134739       4.96021673      25.01480577  T        1
Al      11.45512986       4.96021673      25.01480577  T        1
Al       4.29567370       7.44032509      25.01480577  T        1
Al       7.15945616       7.44032509      25.01480577  T        1
Al      10.02323862       7.44032509      25.01480577  T        1
Al      12.88702109       7.44032509      25.01480577  T        1
O        0.00000000       0.00000000      27.01480577  T        0
H        0.00000000      -0.76323900      27.61111477  T        0
H        0.00000000       0.76323900      27.61111477  T        0
67
Lattice="11.45512985522207 0.0 0.0 5.727564927611035 9.92043345827187 0.0 0.0 0.0 43.01480577065395" Properties=species:S:1:pos:R:3:move_mask:L:1:tags:I:1 surface_element=Al miller="_JSON [1, 1, 1]" slab_size="_JSON [4, 4, 4]" vacuum_angstrom=18.0 fixed_layers=2 fixed_atom_indices="_JSON [0, 1, 2, 3, 4, 5, 6, 7, 8, 9, 10, 11, 12, 13, 14, 15, 16, 17, 18, 19, 20, 21, 22, 23, 24, 25, 26, 27, 28, 29, 30, 31]" system_name=al111_h2o adsorbate=H2O site=top orientation=dipole_down height_angstrom=2.4 structure_id=09ef6a4a3f68da57 pbc="T T T"
Al       0.00000000       0.00000000      18.00000000  F        4
Al       2.86378246       0.00000000      18.00000000  F        4
Al       5.72756493       0.00000000      18.00000000  F        4
Al       8.59134739       0.00000000      18.00000000  F        4
Al       1.43189123       2.48010836      18.00000000  F        4
Al       4.29567370       2.48010836      18.00000000  F        4
Al       7.15945616       2.48010836      18.00000000  F        4
Al      10.02323862       2.48010836      18.00000000  F        4
Al       2.86378246       4.96021673      18.00000000  F        4
Al       5.72756493       4.96021673      18.00000000  F        4
Al       8.59134739       4.96021673      18.00000000  F        4
Al      11.45512986       4.96021673      18.00000000  F        4
Al       4.29567370       7.44032509      18.00000000  F        4
Al       7.15945616       7.44032509      18.00000000  F        4
Al      10.02323862       7.44032509      18.00000000  F        4
Al      12.88702109       7.44032509      18.00000000  F        4
Al       1.43189123       0.82670279      20.33826859  F        3
Al       4.29567370       0.82670279      20.33826859  F        3
Al       7.15945616       0.82670279      20.33826859  F        3
Al      10.02323862       0.82670279      20.33826859  F        3
Al       2.86378246       3.30681115      20.33826859  F        3
Al       5.72756493       3.30681115      20.33826859  F        3
Al       8.59134739       3.30681115      20.33826859  F        3
Al      11.45512986       3.30681115      20.33826859  F        3
Al       4.29567370       5.78691952      20.33826859  F        3
Al       7.15945616       5.78691952      20.33826859  F        3
Al      10.02323862       5.78691952      20.33826859  F        3
Al      12.88702109       5.78691952      20.33826859  F        3
Al       5.72756493       8.26702788      20.33826859  F        3
Al       8.59134739       8.26702788      20.33826859  F        3
Al      11.45512986       8.26702788      20.33826859  F        3
Al      14.31891232       8.26702788      20.33826859  F        3
Al      -0.00000000       1.65340558      22.67653718  T        2
Al       2.86378246       1.65340558      22.67653718  T        2
Al       5.72756493       1.65340558      22.67653718  T        2
Al       8.59134739       1.65340558      22.67653718  T        2
Al       1.43189123       4.13351394      22.67653718  T        2
Al       4.29567370       4.13351394      22.67653718  T        2
Al       7.15945616       4.13351394      22.67653718  T        2
Al      10.02323862       4.13351394      22.67653718  T        2
Al       2.86378246       6.61362231      22.67653718  T        2
Al       5.72756493       6.61362231      22.67653718  T        2
Al       8.59134739       6.61362231      22.67653718  T        2
Al      11.45512986       6.61362231      22.67653718  T        2
Al       4.29567370       9.09373067      22.67653718  T        2
Al       7.15945616       9.09373067      22.67653718  T        2
Al      10.02323862       9.09373067      22.67653718  T        2
Al      12.88702109       9.09373067      22.67653718  T        2
Al       0.00000000       0.00000000      25.01480577  T        1
Al       2.86378246       0.00000000      25.01480577  T        1
Al       5.72756493       0.00000000      25.01480577  T        1
Al       8.59134739       0.00000000      25.01480577  T        1
Al       1.43189123       2.48010836      25.01480577  T        1
Al       4.29567370       2.48010836      25.01480577  T        1
Al       7.15945616       2.48010836      25.01480577  T        1
Al      10.02323862       2.48010836      25.01480577  T        1
Al       2.86378246       4.96021673      25.01480577  T        1
Al       5.72756493       4.96021673      25.01480577  T        1
Al       8.59134739       4.96021673      25.01480577  T        1
Al      11.45512986       4.96021673      25.01480577  T        1
Al       4.29567370       7.44032509      25.01480577  T        1
Al       7.15945616       7.44032509      25.01480577  T        1
Al      10.02323862       7.44032509      25.01480577  T        1
Al      12.88702109       7.44032509      25.01480577  T        1
O        0.00000000       0.00000000      27.41480577  T        0
H        0.00000000      -0.76323900      28.01111477  T        0
H        0.00000000       0.76323900      28.01111477  T        0
67
Lattice="11.45512985522207 0.0 0.0 5.727564927611035 9.92043345827187 0.0 0.0 0.0 43.01480577065395" Properties=species:S:1:pos:R:3:move_mask:L:1:tags:I:1 surface_element=Al miller="_JSON [1, 1, 1]" slab_size="_JSON [4, 4, 4]" vacuum_angstrom=18.0 fixed_layers=2 fixed_atom_indices="_JSON [0, 1, 2, 3, 4, 5, 6, 7, 8, 9, 10, 11, 12, 13, 14, 15, 16, 17, 18, 19, 20, 21, 22, 23, 24, 25, 26, 27, 28, 29, 30, 31]" system_name=al111_h2o adsorbate=H2O site=top orientation=dipole_down height_angstrom=2.8 structure_id=3c059212db75bccb pbc="T T T"
Al       0.00000000       0.00000000      18.00000000  F        4
Al       2.86378246       0.00000000      18.00000000  F        4
Al       5.72756493       0.00000000      18.00000000  F        4
Al       8.59134739       0.00000000      18.00000000  F        4
Al       1.43189123       2.48010836      18.00000000  F        4
Al       4.29567370       2.48010836      18.00000000  F        4
Al       7.15945616       2.48010836      18.00000000  F        4
Al      10.02323862       2.48010836      18.00000000  F        4
Al       2.86378246       4.96021673      18.00000000  F        4
Al       5.72756493       4.96021673      18.00000000  F        4
Al       8.59134739       4.96021673      18.00000000  F        4
Al      11.45512986       4.96021673      18.00000000  F        4
Al       4.29567370       7.44032509      18.00000000  F        4
Al       7.15945616       7.44032509      18.00000000  F        4
Al      10.02323862       7.44032509      18.00000000  F        4
Al      12.88702109       7.44032509      18.00000000  F        4
Al       1.43189123       0.82670279      20.33826859  F        3
Al       4.29567370       0.82670279      20.33826859  F        3
Al       7.15945616       0.82670279      20.33826859  F        3
Al      10.02323862       0.82670279      20.33826859  F        3
Al       2.86378246       3.30681115      20.33826859  F        3
Al       5.72756493       3.30681115      20.33826859  F        3
Al       8.59134739       3.30681115      20.33826859  F        3
Al      11.45512986       3.30681115      20.33826859  F        3
Al       4.29567370       5.78691952      20.33826859  F        3
Al       7.15945616       5.78691952      20.33826859  F        3
Al      10.02323862       5.78691952      20.33826859  F        3
Al      12.88702109       5.78691952      20.33826859  F        3
Al       5.72756493       8.26702788      20.33826859  F        3
Al       8.59134739       8.26702788      20.33826859  F        3
Al      11.45512986       8.26702788      20.33826859  F        3
Al      14.31891232       8.26702788      20.33826859  F        3
Al      -0.00000000       1.65340558      22.67653718  T        2
Al       2.86378246       1.65340558      22.67653718  T        2
Al       5.72756493       1.65340558      22.67653718  T        2
Al       8.59134739       1.65340558      22.67653718  T        2
Al       1.43189123       4.13351394      22.67653718  T        2
Al       4.29567370       4.13351394      22.67653718  T        2
Al       7.15945616       4.13351394      22.67653718  T        2
Al      10.02323862       4.13351394      22.67653718  T        2
Al       2.86378246       6.61362231      22.67653718  T        2
Al       5.72756493       6.61362231      22.67653718  T        2
Al       8.59134739       6.61362231      22.67653718  T        2
Al      11.45512986       6.61362231      22.67653718  T        2
Al       4.29567370       9.09373067      22.67653718  T        2
Al       7.15945616       9.09373067      22.67653718  T        2
Al      10.02323862       9.09373067      22.67653718  T        2
Al      12.88702109       9.09373067      22.67653718  T        2
Al       0.00000000       0.00000000      25.01480577  T        1
Al       2.86378246       0.00000000      25.01480577  T        1
Al       5.72756493       0.00000000      25.01480577  T        1
Al       8.59134739       0.00000000      25.01480577  T        1
Al       1.43189123       2.48010836      25.01480577  T        1
Al       4.29567370       2.48010836      25.01480577  T        1
Al       7.15945616       2.48010836      25.01480577  T        1
Al      10.02323862       2.48010836      25.01480577  T        1
Al       2.86378246       4.96021673      25.01480577  T        1
Al       5.72756493       4.96021673      25.01480577  T        1
Al       8.59134739       4.96021673      25.01480577  T        1
Al      11.45512986       4.96021673      25.01480577  T        1
Al       4.29567370       7.44032509      25.01480577  T        1
Al       7.15945616       7.44032509      25.01480577  T        1
Al      10.02323862       7.44032509      25.01480577  T        1
Al      12.88702109       7.44032509      25.01480577  T        1
O        0.00000000       0.00000000      27.81480577  T        0
H        0.00000000      -0.76323900      28.41111477  T        0
H        0.00000000       0.76323900      28.41111477  T        0
67
Lattice="11.45512985522207 0.0 0.0 5.727564927611035 9.92043345827187 0.0 0.0 0.0 43.01480577065395" Properties=species:S:1:pos:R:3:move_mask:L:1:tags:I:1 surface_element=Al miller="_JSON [1, 1, 1]" slab_size="_JSON [4, 4, 4]" vacuum_angstrom=18.0 fixed_layers=2 fixed_atom_indices="_JSON [0, 1, 2, 3, 4, 5, 6, 7, 8, 9, 10, 11, 12, 13, 14, 15, 16, 17, 18, 19, 20, 21, 22, 23, 24, 25, 26, 27, 28, 29, 30, 31]" system_name=al111_h2o adsorbate=H2O site=top orientation=dipole_down height_angstrom=3.2 structure_id=0b6f0893d21cdb69 pbc="T T T"
Al       0.00000000       0.00000000      18.00000000  F        4
Al       2.86378246       0.00000000      18.00000000  F        4
Al       5.72756493       0.00000000      18.00000000  F        4
Al       8.59134739       0.00000000      18.00000000  F        4
Al       1.43189123       2.48010836      18.00000000  F        4
Al       4.29567370       2.48010836      18.00000000  F        4
Al       7.15945616       2.48010836      18.00000000  F        4
Al      10.02323862       2.48010836      18.00000000  F        4
Al       2.86378246       4.96021673      18.00000000  F        4
Al       5.72756493       4.96021673      18.00000000  F        4
Al       8.59134739       4.96021673      18.00000000  F        4
Al      11.45512986       4.96021673      18.00000000  F        4
Al       4.29567370       7.44032509      18.00000000  F        4
Al       7.15945616       7.44032509      18.00000000  F        4
Al      10.02323862       7.44032509      18.00000000  F        4
Al      12.88702109       7.44032509      18.00000000  F        4
Al       1.43189123       0.82670279      20.33826859  F        3
Al       4.29567370       0.82670279      20.33826859  F        3
Al       7.15945616       0.82670279      20.33826859  F        3
Al      10.02323862       0.82670279      20.33826859  F        3
Al       2.86378246       3.30681115      20.33826859  F        3
Al       5.72756493       3.30681115      20.33826859  F        3
Al       8.59134739       3.30681115      20.33826859  F        3
Al      11.45512986       3.30681115      20.33826859  F        3
Al       4.29567370       5.78691952      20.33826859  F        3
Al       7.15945616       5.78691952      20.33826859  F        3
Al      10.02323862       5.78691952      20.33826859  F        3
Al      12.88702109       5.78691952      20.33826859  F        3
Al       5.72756493       8.26702788      20.33826859  F        3
Al       8.59134739       8.26702788      20.33826859  F        3
Al      11.45512986       8.26702788      20.33826859  F        3
Al      14.31891232       8.26702788      20.33826859  F        3
Al      -0.00000000       1.65340558      22.67653718  T        2
Al       2.86378246       1.65340558      22.67653718  T        2
Al       5.72756493       1.65340558      22.67653718  T        2
Al       8.59134739       1.65340558      22.67653718  T        2
Al       1.43189123       4.13351394      22.67653718  T        2
Al       4.29567370       4.13351394      22.67653718  T        2
Al       7.15945616       4.13351394      22.67653718  T        2
Al      10.02323862       4.13351394      22.67653718  T        2
Al       2.86378246       6.61362231      22.67653718  T        2
Al       5.72756493       6.61362231      22.67653718  T        2
Al       8.59134739       6.61362231      22.67653718  T        2
Al      11.45512986       6.61362231      22.67653718  T        2
Al       4.29567370       9.09373067      22.67653718  T        2
Al       7.15945616       9.09373067      22.67653718  T        2
Al      10.02323862       9.09373067      22.67653718  T        2
Al      12.88702109       9.09373067      22.67653718  T        2
Al       0.00000000       0.00000000      25.01480577  T        1
Al       2.86378246       0.00000000      25.01480577  T        1
Al       5.72756493       0.00000000      25.01480577  T        1
Al       8.59134739       0.00000000      25.01480577  T        1
Al       1.43189123       2.48010836      25.01480577  T        1
Al       4.29567370       2.48010836      25.01480577  T        1
Al       7.15945616       2.48010836      25.01480577  T        1
Al      10.02323862       2.48010836      25.01480577  T        1
Al       2.86378246       4.96021673      25.01480577  T        1
Al       5.72756493       4.96021673      25.01480577  T        1
Al       8.59134739       4.96021673      25.01480577  T        1
Al      11.45512986       4.96021673      25.01480577  T        1
Al       4.29567370       7.44032509      25.01480577  T        1
Al       7.15945616       7.44032509      25.01480577  T        1
Al      10.02323862       7.44032509      25.01480577  T        1
Al      12.88702109       7.44032509      25.01480577  T        1
O        0.00000000       0.00000000      28.21480577  T        0
H        0.00000000      -0.76323900      28.81111477  T        0
H        0.00000000       0.76323900      28.81111477  T        0
67
Lattice="11.45512985522207 0.0 0.0 5.727564927611035 9.92043345827187 0.0 0.0 0.0 43.01480577065395" Properties=species:S:1:pos:R:3:move_mask:L:1:tags:I:1 surface_element=Al miller="_JSON [1, 1, 1]" slab_size="_JSON [4, 4, 4]" vacuum_angstrom=18.0 fixed_layers=2 fixed_atom_indices="_JSON [0, 1, 2, 3, 4, 5, 6, 7, 8, 9, 10, 11, 12, 13, 14, 15, 16, 17, 18, 19, 20, 21, 22, 23, 24, 25, 26, 27, 28, 29, 30, 31]" system_name=al111_h2o adsorbate=H2O site=top orientation=dipole_up height_angstrom=2.0 structure_id=d3341f760c3f3596 pbc="T T T"
Al       0.00000000       0.00000000      18.00000000  F        4
Al       2.86378246       0.00000000      18.00000000  F        4
Al       5.72756493       0.00000000      18.00000000  F        4
Al       8.59134739       0.00000000      18.00000000  F        4
Al       1.43189123       2.48010836      18.00000000  F        4
Al       4.29567370       2.48010836      18.00000000  F        4
Al       7.15945616       2.48010836      18.00000000  F        4
Al      10.02323862       2.48010836      18.00000000  F        4
Al       2.86378246       4.96021673      18.00000000  F        4
Al       5.72756493       4.96021673      18.00000000  F        4
Al       8.59134739       4.96021673      18.00000000  F        4
Al      11.45512986       4.96021673      18.00000000  F        4
Al       4.29567370       7.44032509      18.00000000  F        4
Al       7.15945616       7.44032509      18.00000000  F        4
Al      10.02323862       7.44032509      18.00000000  F        4
Al      12.88702109       7.44032509      18.00000000  F        4
Al       1.43189123       0.82670279      20.33826859  F        3
Al       4.29567370       0.82670279      20.33826859  F        3
Al       7.15945616       0.82670279      20.33826859  F        3
Al      10.02323862       0.82670279      20.33826859  F        3
Al       2.86378246       3.30681115      20.33826859  F        3
Al       5.72756493       3.30681115      20.33826859  F        3
Al       8.59134739       3.30681115      20.33826859  F        3
Al      11.45512986       3.30681115      20.33826859  F        3
Al       4.29567370       5.78691952      20.33826859  F        3
Al       7.15945616       5.78691952      20.33826859  F        3
Al      10.02323862       5.78691952      20.33826859  F        3
Al      12.88702109       5.78691952      20.33826859  F        3
Al       5.72756493       8.26702788      20.33826859  F        3
Al       8.59134739       8.26702788      20.33826859  F        3
Al      11.45512986       8.26702788      20.33826859  F        3
Al      14.31891232       8.26702788      20.33826859  F        3
Al      -0.00000000       1.65340558      22.67653718  T        2
Al       2.86378246       1.65340558      22.67653718  T        2
Al       5.72756493       1.65340558      22.67653718  T        2
Al       8.59134739       1.65340558      22.67653718  T        2
Al       1.43189123       4.13351394      22.67653718  T        2
Al       4.29567370       4.13351394      22.67653718  T        2
Al       7.15945616       4.13351394      22.67653718  T        2
Al      10.02323862       4.13351394      22.67653718  T        2
Al       2.86378246       6.61362231      22.67653718  T        2
Al       5.72756493       6.61362231      22.67653718  T        2
Al       8.59134739       6.61362231      22.67653718  T        2
Al      11.45512986       6.61362231      22.67653718  T        2
Al       4.29567370       9.09373067      22.67653718  T        2
Al       7.15945616       9.09373067      22.67653718  T        2
Al      10.02323862       9.09373067      22.67653718  T        2
Al      12.88702109       9.09373067      22.67653718  T        2
Al       0.00000000       0.00000000      25.01480577  T        1
Al       2.86378246       0.00000000      25.01480577  T        1
Al       5.72756493       0.00000000      25.01480577  T        1
Al       8.59134739       0.00000000      25.01480577  T        1
Al       1.43189123       2.48010836      25.01480577  T        1
Al       4.29567370       2.48010836      25.01480577  T        1
Al       7.15945616       2.48010836      25.01480577  T        1
Al      10.02323862       2.48010836      25.01480577  T        1
Al       2.86378246       4.96021673      25.01480577  T        1
Al       5.72756493       4.96021673      25.01480577  T        1
Al       8.59134739       4.96021673      25.01480577  T        1
Al      11.45512986       4.96021673      25.01480577  T        1
Al       4.29567370       7.44032509      25.01480577  T        1
Al       7.15945616       7.44032509      25.01480577  T        1
Al      10.02323862       7.44032509      25.01480577  T        1
Al      12.88702109       7.44032509      25.01480577  T        1
O        0.00000000       0.00000000      27.01480577  T        0
H        0.00000000       0.76323900      26.41849677  T        0
H        0.00000000      -0.76323900      26.41849677  T        0
67
Lattice="11.45512985522207 0.0 0.0 5.727564927611035 9.92043345827187 0.0 0.0 0.0 43.01480577065395" Properties=species:S:1:pos:R:3:move_mask:L:1:tags:I:1 surface_element=Al miller="_JSON [1, 1, 1]" slab_size="_JSON [4, 4, 4]" vacuum_angstrom=18.0 fixed_layers=2 fixed_atom_indices="_JSON [0, 1, 2, 3, 4, 5, 6, 7, 8, 9, 10, 11, 12, 13, 14, 15, 16, 17, 18, 19, 20, 21, 22, 23, 24, 25, 26, 27, 28, 29, 30, 31]" system_name=al111_h2o adsorbate=H2O site=top orientation=dipole_up height_angstrom=2.4 structure_id=c02f5e03107a663d pbc="T T T"
Al       0.00000000       0.00000000      18.00000000  F        4
Al       2.86378246       0.00000000      18.00000000  F        4
Al       5.72756493       0.00000000      18.00000000  F        4
Al       8.59134739       0.00000000      18.00000000  F        4
Al       1.43189123       2.48010836      18.00000000  F        4
Al       4.29567370       2.48010836      18.00000000  F        4
Al       7.15945616       2.48010836      18.00000000  F        4
Al      10.02323862       2.48010836      18.00000000  F        4
Al       2.86378246       4.96021673      18.00000000  F        4
Al       5.72756493       4.96021673      18.00000000  F        4
Al       8.59134739       4.96021673      18.00000000  F        4
Al      11.45512986       4.96021673      18.00000000  F        4
Al       4.29567370       7.44032509      18.00000000  F        4
Al       7.15945616       7.44032509      18.00000000  F        4
Al      10.02323862       7.44032509      18.00000000  F        4
Al      12.88702109       7.44032509      18.00000000  F        4
Al       1.43189123       0.82670279      20.33826859  F        3
Al       4.29567370       0.82670279      20.33826859  F        3
Al       7.15945616       0.82670279      20.33826859  F        3
Al      10.02323862       0.82670279      20.33826859  F        3
Al       2.86378246       3.30681115      20.33826859  F        3
Al       5.72756493       3.30681115      20.33826859  F        3
Al       8.59134739       3.30681115      20.33826859  F        3
Al      11.45512986       3.30681115      20.33826859  F        3
Al       4.29567370       5.78691952      20.33826859  F        3
Al       7.15945616       5.78691952      20.33826859  F        3
Al      10.02323862       5.78691952      20.33826859  F        3
Al      12.88702109       5.78691952      20.33826859  F        3
Al       5.72756493       8.26702788      20.33826859  F        3
Al       8.59134739       8.26702788      20.33826859  F        3
Al      11.45512986       8.26702788      20.33826859  F        3
Al      14.31891232       8.26702788      20.33826859  F        3
Al      -0.00000000       1.65340558      22.67653718  T        2
Al       2.86378246       1.65340558      22.67653718  T        2
Al       5.72756493       1.65340558      22.67653718  T        2
Al       8.59134739       1.65340558      22.67653718  T        2
Al       1.43189123       4.13351394      22.67653718  T        2
Al       4.29567370       4.13351394      22.67653718  T        2
Al       7.15945616       4.13351394      22.67653718  T        2
Al      10.02323862       4.13351394      22.67653718  T        2
Al       2.86378246       6.61362231      22.67653718  T        2
Al       5.72756493       6.61362231      22.67653718  T        2
Al       8.59134739       6.61362231      22.67653718  T        2
Al      11.45512986       6.61362231      22.67653718  T        2
Al       4.29567370       9.09373067      22.67653718  T        2
Al       7.15945616       9.09373067      22.67653718  T        2
Al      10.02323862       9.09373067      22.67653718  T        2
Al      12.88702109       9.09373067      22.67653718  T        2
Al       0.00000000       0.00000000      25.01480577  T        1
Al       2.86378246       0.00000000      25.01480577  T        1
Al       5.72756493       0.00000000      25.01480577  T        1
Al       8.59134739       0.00000000      25.01480577  T        1
Al       1.43189123       2.48010836      25.01480577  T        1
Al       4.29567370       2.48010836      25.01480577  T        1
Al       7.15945616       2.48010836      25.01480577  T        1
Al      10.02323862       2.48010836      25.01480577  T        1
Al       2.86378246       4.96021673      25.01480577  T        1
Al       5.72756493       4.96021673      25.01480577  T        1
Al       8.59134739       4.96021673      25.01480577  T        1
Al      11.45512986       4.96021673      25.01480577  T        1
Al       4.29567370       7.44032509      25.01480577  T        1
Al       7.15945616       7.44032509      25.01480577  T        1
Al      10.02323862       7.44032509      25.01480577  T        1
Al      12.88702109       7.44032509      25.01480577  T        1
O        0.00000000       0.00000000      27.41480577  T        0
H        0.00000000       0.76323900      26.81849677  T        0
H        0.00000000      -0.76323900      26.81849677  T        0
67
Lattice="11.45512985522207 0.0 0.0 5.727564927611035 9.92043345827187 0.0 0.0 0.0 43.01480577065395" Properties=species:S:1:pos:R:3:move_mask:L:1:tags:I:1 surface_element=Al miller="_JSON [1, 1, 1]" slab_size="_JSON [4, 4, 4]" vacuum_angstrom=18.0 fixed_layers=2 fixed_atom_indices="_JSON [0, 1, 2, 3, 4, 5, 6, 7, 8, 9, 10, 11, 12, 13, 14, 15, 16, 17, 18, 19, 20, 21, 22, 23, 24, 25, 26, 27, 28, 29, 30, 31]" system_name=al111_h2o adsorbate=H2O site=top orientation=dipole_up height_angstrom=2.8 structure_id=7b3b9bf39a82de13 pbc="T T T"
Al       0.00000000       0.00000000      18.00000000  F        4
Al       2.86378246       0.00000000      18.00000000  F        4
Al       5.72756493       0.00000000      18.00000000  F        4
Al       8.59134739       0.00000000      18.00000000  F        4
Al       1.43189123       2.48010836      18.00000000  F        4
Al       4.29567370       2.48010836      18.00000000  F        4
Al       7.15945616       2.48010836      18.00000000  F        4
Al      10.02323862       2.48010836      18.00000000  F        4
Al       2.86378246       4.96021673      18.00000000  F        4
Al       5.72756493       4.96021673      18.00000000  F        4
Al       8.59134739       4.96021673      18.00000000  F        4
Al      11.45512986       4.96021673      18.00000000  F        4
Al       4.29567370       7.44032509      18.00000000  F        4
Al       7.15945616       7.44032509      18.00000000  F        4
Al      10.02323862       7.44032509      18.00000000  F        4
Al      12.88702109       7.44032509      18.00000000  F        4
Al       1.43189123       0.82670279      20.33826859  F        3
Al       4.29567370       0.82670279      20.33826859  F        3
Al       7.15945616       0.82670279      20.33826859  F        3
Al      10.02323862       0.82670279      20.33826859  F        3
Al       2.86378246       3.30681115      20.33826859  F        3
Al       5.72756493       3.30681115      20.33826859  F        3
Al       8.59134739       3.30681115      20.33826859  F        3
Al      11.45512986       3.30681115      20.33826859  F        3
Al       4.29567370       5.78691952      20.33826859  F        3
Al       7.15945616       5.78691952      20.33826859  F        3
Al      10.02323862       5.78691952      20.33826859  F        3
Al      12.88702109       5.78691952      20.33826859  F        3
Al       5.72756493       8.26702788      20.33826859  F        3
Al       8.59134739       8.26702788      20.33826859  F        3
Al      11.45512986       8.26702788      20.33826859  F        3
Al      14.31891232       8.26702788      20.33826859  F        3
Al      -0.00000000       1.65340558      22.67653718  T        2
Al       2.86378246       1.65340558      22.67653718  T        2
Al       5.72756493       1.65340558      22.67653718  T        2
Al       8.59134739       1.65340558      22.67653718  T        2
Al       1.43189123       4.13351394      22.67653718  T        2
Al       4.29567370       4.13351394      22.67653718  T        2
Al       7.15945616       4.13351394      22.67653718  T        2
Al      10.02323862       4.13351394      22.67653718  T        2
Al       2.86378246       6.61362231      22.67653718  T        2
Al       5.72756493       6.61362231      22.67653718  T        2
Al       8.59134739       6.61362231      22.67653718  T        2
Al      11.45512986       6.61362231      22.67653718  T        2
Al       4.29567370       9.09373067      22.67653718  T        2
Al       7.15945616       9.09373067      22.67653718  T        2
Al      10.02323862       9.09373067      22.67653718  T        2
Al      12.88702109       9.09373067      22.67653718  T        2
Al       0.00000000       0.00000000      25.01480577  T        1
Al       2.86378246       0.00000000      25.01480577  T        1
Al       5.72756493       0.00000000      25.01480577  T        1
Al       8.59134739       0.00000000      25.01480577  T        1
Al       1.43189123       2.48010836      25.01480577  T        1
Al       4.29567370       2.48010836      25.01480577  T        1
Al       7.15945616       2.48010836      25.01480577  T        1
Al      10.02323862       2.48010836      25.01480577  T        1
Al       2.86378246       4.96021673      25.01480577  T        1
Al       5.72756493       4.96021673      25.01480577  T        1
Al       8.59134739       4.96021673      25.01480577  T        1
Al      11.45512986       4.96021673      25.01480577  T        1
Al       4.29567370       7.44032509      25.01480577  T        1
Al       7.15945616       7.44032509      25.01480577  T        1
Al      10.02323862       7.44032509      25.01480577  T        1
Al      12.88702109       7.44032509      25.01480577  T        1
O        0.00000000       0.00000000      27.81480577  T        0
H        0.00000000       0.76323900      27.21849677  T        0
H        0.00000000      -0.76323900      27.21849677  T        0
67
Lattice="11.45512985522207 0.0 0.0 5.727564927611035 9.92043345827187 0.0 0.0 0.0 43.01480577065395" Properties=species:S:1:pos:R:3:move_mask:L:1:tags:I:1 surface_element=Al miller="_JSON [1, 1, 1]" slab_size="_JSON [4, 4, 4]" vacuum_angstrom=18.0 fixed_layers=2 fixed_atom_indices="_JSON [0, 1, 2, 3, 4, 5, 6, 7, 8, 9, 10, 11, 12, 13, 14, 15, 16, 17, 18, 19, 20, 21, 22, 23, 24, 25, 26, 27, 28, 29, 30, 31]" system_name=al111_h2o adsorbate=H2O site=top orientation=dipole_up height_angstrom=3.2 structure_id=9cbbc34d48c99dac pbc="T T T"
Al       0.00000000       0.00000000      18.00000000  F        4
Al       2.86378246       0.00000000      18.00000000  F        4
Al       5.72756493       0.00000000      18.00000000  F        4
Al       8.59134739       0.00000000      18.00000000  F        4
Al       1.43189123       2.48010836      18.00000000  F        4
Al       4.29567370       2.48010836      18.00000000  F        4
Al       7.15945616       2.48010836      18.00000000  F        4
Al      10.02323862       2.48010836      18.00000000  F        4
Al       2.86378246       4.96021673      18.00000000  F        4
Al       5.72756493       4.96021673      18.00000000  F        4
Al       8.59134739       4.96021673      18.00000000  F        4
Al      11.45512986       4.96021673      18.00000000  F        4
Al       4.29567370       7.44032509      18.00000000  F        4
Al       7.15945616       7.44032509      18.00000000  F        4
Al      10.02323862       7.44032509      18.00000000  F        4
Al      12.88702109       7.44032509      18.00000000  F        4
Al       1.43189123       0.82670279      20.33826859  F        3
Al       4.29567370       0.82670279      20.33826859  F        3
Al       7.15945616       0.82670279      20.33826859  F        3
Al      10.02323862       0.82670279      20.33826859  F        3
Al       2.86378246       3.30681115      20.33826859  F        3
Al       5.72756493       3.30681115      20.33826859  F        3
Al       8.59134739       3.30681115      20.33826859  F        3
Al      11.45512986       3.30681115      20.33826859  F        3
Al       4.29567370       5.78691952      20.33826859  F        3
Al       7.15945616       5.78691952      20.33826859  F        3
Al      10.02323862       5.78691952      20.33826859  F        3
Al      12.88702109       5.78691952      20.33826859  F        3
Al       5.72756493       8.26702788      20.33826859  F        3
Al       8.59134739       8.26702788      20.33826859  F        3
Al      11.45512986       8.26702788      20.33826859  F        3
Al      14.31891232       8.26702788      20.33826859  F        3
Al      -0.00000000       1.65340558      22.67653718  T        2
Al       2.86378246       1.65340558      22.67653718  T        2
Al       5.72756493       1.65340558      22.67653718  T        2
Al       8.59134739       1.65340558      22.67653718  T        2
Al       1.43189123       4.13351394      22.67653718  T        2
Al       4.29567370       4.13351394      22.67653718  T        2
Al       7.15945616       4.13351394      22.67653718  T        2
Al      10.02323862       4.13351394      22.67653718  T        2
Al       2.86378246       6.61362231      22.67653718  T        2
Al       5.72756493       6.61362231      22.67653718  T        2
Al       8.59134739       6.61362231      22.67653718  T        2
Al      11.45512986       6.61362231      22.67653718  T        2
Al       4.29567370       9.09373067      22.67653718  T        2
Al       7.15945616       9.09373067      22.67653718  T        2
Al      10.02323862       9.09373067      22.67653718  T        2
Al      12.88702109       9.09373067      22.67653718  T        2
Al       0.00000000       0.00000000      25.01480577  T        1
Al       2.86378246       0.00000000      25.01480577  T        1
Al       5.72756493       0.00000000      25.01480577  T        1
Al       8.59134739       0.00000000      25.01480577  T        1
Al       1.43189123       2.48010836      25.01480577  T        1
Al       4.29567370       2.48010836      25.01480577  T        1
Al       7.15945616       2.48010836      25.01480577  T        1
Al      10.02323862       2.48010836      25.01480577  T        1
Al       2.86378246       4.96021673      25.01480577  T        1
Al       5.72756493       4.96021673      25.01480577  T        1
Al       8.59134739       4.96021673      25.01480577  T        1
Al      11.45512986       4.96021673      25.01480577  T        1
Al       4.29567370       7.44032509      25.01480577  T        1
Al       7.15945616       7.44032509      25.01480577  T        1
Al      10.02323862       7.44032509      25.01480577  T        1
Al      12.88702109       7.44032509      25.01480577  T        1
O        0.00000000       0.00000000      28.21480577  T        0
H        0.00000000       0.76323900      27.61849677  T        0
H        0.00000000      -0.76323900      27.61849677  T        0
67
Lattice="11.45512985522207 0.0 0.0 5.727564927611035 9.92043345827187 0.0 0.0 0.0 43.01480577065395" Properties=species:S:1:pos:R:3:move_mask:L:1:tags:I:1 surface_element=Al miller="_JSON [1, 1, 1]" slab_size="_JSON [4, 4, 4]" vacuum_angstrom=18.0 fixed_layers=2 fixed_atom_indices="_JSON [0, 1, 2, 3, 4, 5, 6, 7, 8, 9, 10, 11, 12, 13, 14, 15, 16, 17, 18, 19, 20, 21, 22, 23, 24, 25, 26, 27, 28, 29, 30, 31]" system_name=al111_h2o adsorbate=H2O site=top orientation=flat height_angstrom=2.0 structure_id=4a66338cf7905fe4 pbc="T T T"
Al       0.00000000       0.00000000      18.00000000  F        4
Al       2.86378246       0.00000000      18.00000000  F        4
Al       5.72756493       0.00000000      18.00000000  F        4
Al       8.59134739       0.00000000      18.00000000  F        4
Al       1.43189123       2.48010836      18.00000000  F        4
Al       4.29567370       2.48010836      18.00000000  F        4
Al       7.15945616       2.48010836      18.00000000  F        4
Al      10.02323862       2.48010836      18.00000000  F        4
Al       2.86378246       4.96021673      18.00000000  F        4
Al       5.72756493       4.96021673      18.00000000  F        4
Al       8.59134739       4.96021673      18.00000000  F        4
Al      11.45512986       4.96021673      18.00000000  F        4
Al       4.29567370       7.44032509      18.00000000  F        4
Al       7.15945616       7.44032509      18.00000000  F        4
Al      10.02323862       7.44032509      18.00000000  F        4
Al      12.88702109       7.44032509      18.00000000  F        4
Al       1.43189123       0.82670279      20.33826859  F        3
Al       4.29567370       0.82670279      20.33826859  F        3
Al       7.15945616       0.82670279      20.33826859  F        3
Al      10.02323862       0.82670279      20.33826859  F        3
Al       2.86378246       3.30681115      20.33826859  F        3
Al       5.72756493       3.30681115      20.33826859  F        3
Al       8.59134739       3.30681115      20.33826859  F        3
Al      11.45512986       3.30681115      20.33826859  F        3
Al       4.29567370       5.78691952      20.33826859  F        3
Al       7.15945616       5.78691952      20.33826859  F        3
Al      10.02323862       5.78691952      20.33826859  F        3
Al      12.88702109       5.78691952      20.33826859  F        3
Al       5.72756493       8.26702788      20.33826859  F        3
Al       8.59134739       8.26702788      20.33826859  F        3
Al      11.45512986       8.26702788      20.33826859  F        3
Al      14.31891232       8.26702788      20.33826859  F        3
Al      -0.00000000       1.65340558      22.67653718  T        2
Al       2.86378246       1.65340558      22.67653718  T        2
Al       5.72756493       1.65340558      22.67653718  T        2
Al       8.59134739       1.65340558      22.67653718  T        2
Al       1.43189123       4.13351394      22.67653718  T        2
Al       4.29567370       4.13351394      22.67653718  T        2
Al       7.15945616       4.13351394      22.67653718  T        2
Al      10.02323862       4.13351394      22.67653718  T        2
Al       2.86378246       6.61362231      22.67653718  T        2
Al       5.72756493       6.61362231      22.67653718  T        2
Al       8.59134739       6.61362231      22.67653718  T        2
Al      11.45512986       6.61362231      22.67653718  T        2
Al       4.29567370       9.09373067      22.67653718  T        2
Al       7.15945616       9.09373067      22.67653718  T        2
Al      10.02323862       9.09373067      22.67653718  T        2
Al      12.88702109       9.09373067      22.67653718  T        2
Al       0.00000000       0.00000000      25.01480577  T        1
Al       2.86378246       0.00000000      25.01480577  T        1
Al       5.72756493       0.00000000      25.01480577  T        1
Al       8.59134739       0.00000000      25.01480577  T        1
Al       1.43189123       2.48010836      25.01480577  T        1
Al       4.29567370       2.48010836      25.01480577  T        1
Al       7.15945616       2.48010836      25.01480577  T        1
Al      10.02323862       2.48010836      25.01480577  T        1
Al       2.86378246       4.96021673      25.01480577  T        1
Al       5.72756493       4.96021673      25.01480577  T        1
Al       8.59134739       4.96021673      25.01480577  T        1
Al      11.45512986       4.96021673      25.01480577  T        1
Al       4.29567370       7.44032509      25.01480577  T        1
Al       7.15945616       7.44032509      25.01480577  T        1
Al      10.02323862       7.44032509      25.01480577  T        1
Al      12.88702109       7.44032509      25.01480577  T        1
O        0.00000000       0.00000000      27.01480577  T        0
H       -0.59630900       0.76323900      27.01480577  T        0
H       -0.59630900      -0.76323900      27.01480577  T        0
67
Lattice="11.45512985522207 0.0 0.0 5.727564927611035 9.92043345827187 0.0 0.0 0.0 43.01480577065395" Properties=species:S:1:pos:R:3:move_mask:L:1:tags:I:1 surface_element=Al miller="_JSON [1, 1, 1]" slab_size="_JSON [4, 4, 4]" vacuum_angstrom=18.0 fixed_layers=2 fixed_atom_indices="_JSON [0, 1, 2, 3, 4, 5, 6, 7, 8, 9, 10, 11, 12, 13, 14, 15, 16, 17, 18, 19, 20, 21, 22, 23, 24, 25, 26, 27, 28, 29, 30, 31]" system_name=al111_h2o adsorbate=H2O site=top orientation=flat height_angstrom=2.4 structure_id=9af815151e4693ff pbc="T T T"
Al       0.00000000       0.00000000      18.00000000  F        4
Al       2.86378246       0.00000000      18.00000000  F        4
Al       5.72756493       0.00000000      18.00000000  F        4
Al       8.59134739       0.00000000      18.00000000  F        4
Al       1.43189123       2.48010836      18.00000000  F        4
Al       4.29567370       2.48010836      18.00000000  F        4
Al       7.15945616       2.48010836      18.00000000  F        4
Al      10.02323862       2.48010836      18.00000000  F        4
Al       2.86378246       4.96021673      18.00000000  F        4
Al       5.72756493       4.96021673      18.00000000  F        4
Al       8.59134739       4.96021673      18.00000000  F        4
Al      11.45512986       4.96021673      18.00000000  F        4
Al       4.29567370       7.44032509      18.00000000  F        4
Al       7.15945616       7.44032509      18.00000000  F        4
Al      10.02323862       7.44032509      18.00000000  F        4
Al      12.88702109       7.44032509      18.00000000  F        4
Al       1.43189123       0.82670279      20.33826859  F        3
Al       4.29567370       0.82670279      20.33826859  F        3
Al       7.15945616       0.82670279      20.33826859  F        3
Al      10.02323862       0.82670279      20.33826859  F        3
Al       2.86378246       3.30681115      20.33826859  F        3
Al       5.72756493       3.30681115      20.33826859  F        3
Al       8.59134739       3.30681115      20.33826859  F        3
Al      11.45512986       3.30681115      20.33826859  F        3
Al       4.29567370       5.78691952      20.33826859  F        3
Al       7.15945616       5.78691952      20.33826859  F        3
Al      10.02323862       5.78691952      20.33826859  F        3
Al      12.88702109       5.78691952      20.33826859  F        3
Al       5.72756493       8.26702788      20.33826859  F        3
Al       8.59134739       8.26702788      20.33826859  F        3
Al      11.45512986       8.26702788      20.33826859  F        3
Al      14.31891232       8.26702788      20.33826859  F        3
Al      -0.00000000       1.65340558      22.67653718  T        2
Al       2.86378246       1.65340558      22.67653718  T        2
Al       5.72756493       1.65340558      22.67653718  T        2
Al       8.59134739       1.65340558      22.67653718  T        2
Al       1.43189123       4.13351394      22.67653718  T        2
Al       4.29567370       4.13351394      22.67653718  T        2
Al       7.15945616       4.13351394      22.67653718  T        2
Al      10.02323862       4.13351394      22.67653718  T        2
Al       2.86378246       6.61362231      22.67653718  T        2
Al       5.72756493       6.61362231      22.67653718  T        2
Al       8.59134739       6.61362231      22.67653718  T        2
Al      11.45512986       6.61362231      22.67653718  T        2
Al       4.29567370       9.09373067      22.67653718  T        2
Al       7.15945616       9.09373067      22.67653718  T        2
Al      10.02323862       9.09373067      22.67653718  T        2
Al      12.88702109       9.09373067      22.67653718  T        2
Al       0.00000000       0.00000000      25.01480577  T        1
Al       2.86378246       0.00000000      25.01480577  T        1
Al       5.72756493       0.00000000      25.01480577  T        1
Al       8.59134739       0.00000000      25.01480577  T        1
Al       1.43189123       2.48010836      25.01480577  T        1
Al       4.29567370       2.48010836      25.01480577  T        1
Al       7.15945616       2.48010836      25.01480577  T        1
Al      10.02323862       2.48010836      25.01480577  T        1
Al       2.86378246       4.96021673      25.01480577  T        1
Al       5.72756493       4.96021673      25.01480577  T        1
Al       8.59134739       4.96021673      25.01480577  T        1
Al      11.45512986       4.96021673      25.01480577  T        1
Al       4.29567370       7.44032509      25.01480577  T        1
Al       7.15945616       7.44032509      25.01480577  T        1
Al      10.02323862       7.44032509      25.01480577  T        1
Al      12.88702109       7.44032509      25.01480577  T        1
O        0.00000000       0.00000000      27.41480577  T        0
H       -0.59630900       0.76323900      27.41480577  T        0
H       -0.59630900      -0.76323900      27.41480577  T        0
67
Lattice="11.45512985522207 0.0 0.0 5.727564927611035 9.92043345827187 0.0 0.0 0.0 43.01480577065395" Properties=species:S:1:pos:R:3:move_mask:L:1:tags:I:1 surface_element=Al miller="_JSON [1, 1, 1]" slab_size="_JSON [4, 4, 4]" vacuum_angstrom=18.0 fixed_layers=2 fixed_atom_indices="_JSON [0, 1, 2, 3, 4, 5, 6, 7, 8, 9, 10, 11, 12, 13, 14, 15, 16, 17, 18, 19, 20, 21, 22, 23, 24, 25, 26, 27, 28, 29, 30, 31]" system_name=al111_h2o adsorbate=H2O site=top orientation=flat height_angstrom=2.8 structure_id=145e62e95edcb619 pbc="T T T"
Al       0.00000000       0.00000000      18.00000000  F        4
Al       2.86378246       0.00000000      18.00000000  F        4
Al       5.72756493       0.00000000      18.00000000  F        4
Al       8.59134739       0.00000000      18.00000000  F        4
Al       1.43189123       2.48010836      18.00000000  F        4
Al       4.29567370       2.48010836      18.00000000  F        4
Al       7.15945616       2.48010836      18.00000000  F        4
Al      10.02323862       2.48010836      18.00000000  F        4
Al       2.86378246       4.96021673      18.00000000  F        4
Al       5.72756493       4.96021673      18.00000000  F        4
Al       8.59134739       4.96021673      18.00000000  F        4
Al      11.45512986       4.96021673      18.00000000  F        4
Al       4.29567370       7.44032509      18.00000000  F        4
Al       7.15945616       7.44032509      18.00000000  F        4
Al      10.02323862       7.44032509      18.00000000  F        4
Al      12.88702109       7.44032509      18.00000000  F        4
Al       1.43189123       0.82670279      20.33826859  F        3
Al       4.29567370       0.82670279      20.33826859  F        3
Al       7.15945616       0.82670279      20.33826859  F        3
Al      10.02323862       0.82670279      20.33826859  F        3
Al       2.86378246       3.30681115      20.33826859  F        3
Al       5.72756493       3.30681115      20.33826859  F        3
Al       8.59134739       3.30681115      20.33826859  F        3
Al      11.45512986       3.30681115      20.33826859  F        3
Al       4.29567370       5.78691952      20.33826859  F        3
Al       7.15945616       5.78691952      20.33826859  F        3
Al      10.02323862       5.78691952      20.33826859  F        3
Al      12.88702109       5.78691952      20.33826859  F        3
Al       5.72756493       8.26702788      20.33826859  F        3
Al       8.59134739       8.26702788      20.33826859  F        3
Al      11.45512986       8.26702788      20.33826859  F        3
Al      14.31891232       8.26702788      20.33826859  F        3
Al      -0.00000000       1.65340558      22.67653718  T        2
Al       2.86378246       1.65340558      22.67653718  T        2
Al       5.72756493       1.65340558      22.67653718  T        2
Al       8.59134739       1.65340558      22.67653718  T        2
Al       1.43189123       4.13351394      22.67653718  T        2
Al       4.29567370       4.13351394      22.67653718  T        2
Al       7.15945616       4.13351394      22.67653718  T        2
Al      10.02323862       4.13351394      22.67653718  T        2
Al       2.86378246       6.61362231      22.67653718  T        2
Al       5.72756493       6.61362231      22.67653718  T        2
Al       8.59134739       6.61362231      22.67653718  T        2
Al      11.45512986       6.61362231      22.67653718  T        2
Al       4.29567370       9.09373067      22.67653718  T        2
Al       7.15945616       9.09373067      22.67653718  T        2
Al      10.02323862       9.09373067      22.67653718  T        2
Al      12.88702109       9.09373067      22.67653718  T        2
Al       0.00000000       0.00000000      25.01480577  T        1
Al       2.86378246       0.00000000      25.01480577  T        1
Al       5.72756493       0.00000000      25.01480577  T        1
Al       8.59134739       0.00000000      25.01480577  T        1
Al       1.43189123       2.48010836      25.01480577  T        1
Al       4.29567370       2.48010836      25.01480577  T        1
Al       7.15945616       2.48010836      25.01480577  T        1
Al      10.02323862       2.48010836      25.01480577  T        1
Al       2.86378246       4.96021673      25.01480577  T        1
Al       5.72756493       4.96021673      25.01480577  T        1
Al       8.59134739       4.96021673      25.01480577  T        1
Al      11.45512986       4.96021673      25.01480577  T        1
Al       4.29567370       7.44032509      25.01480577  T        1
Al       7.15945616       7.44032509      25.01480577  T        1
Al      10.02323862       7.44032509      25.01480577  T        1
Al      12.88702109       7.44032509      25.01480577  T        1
O        0.00000000       0.00000000      27.81480577  T        0
H       -0.59630900       0.76323900      27.81480577  T        0
H       -0.59630900      -0.76323900      27.81480577  T        0
67
Lattice="11.45512985522207 0.0 0.0 5.727564927611035 9.92043345827187 0.0 0.0 0.0 43.01480577065395" Properties=species:S:1:pos:R:3:move_mask:L:1:tags:I:1 surface_element=Al miller="_JSON [1, 1, 1]" slab_size="_JSON [4, 4, 4]" vacuum_angstrom=18.0 fixed_layers=2 fixed_atom_indices="_JSON [0, 1, 2, 3, 4, 5, 6, 7, 8, 9, 10, 11, 12, 13, 14, 15, 16, 17, 18, 19, 20, 21, 22, 23, 24, 25, 26, 27, 28, 29, 30, 31]" system_name=al111_h2o adsorbate=H2O site=top orientation=flat height_angstrom=3.2 structure_id=d77b9a4c9264fdf0 pbc="T T T"
Al       0.00000000       0.00000000      18.00000000  F        4
Al       2.86378246       0.00000000      18.00000000  F        4
Al       5.72756493       0.00000000      18.00000000  F        4
Al       8.59134739       0.00000000      18.00000000  F        4
Al       1.43189123       2.48010836      18.00000000  F        4
Al       4.29567370       2.48010836      18.00000000  F        4
Al       7.15945616       2.48010836      18.00000000  F        4
Al      10.02323862       2.48010836      18.00000000  F        4
Al       2.86378246       4.96021673      18.00000000  F        4
Al       5.72756493       4.96021673      18.00000000  F        4
Al       8.59134739       4.96021673      18.00000000  F        4
Al      11.45512986       4.96021673      18.00000000  F        4
Al       4.29567370       7.44032509      18.00000000  F        4
Al       7.15945616       7.44032509      18.00000000  F        4
Al      10.02323862       7.44032509      18.00000000  F        4
Al      12.88702109       7.44032509      18.00000000  F        4
Al       1.43189123       0.82670279      20.33826859  F        3
Al       4.29567370       0.82670279      20.33826859  F        3
Al       7.15945616       0.82670279      20.33826859  F        3
Al      10.02323862       0.82670279      20.33826859  F        3
Al       2.86378246       3.30681115      20.33826859  F        3
Al       5.72756493       3.30681115      20.33826859  F        3
Al       8.59134739       3.30681115      20.33826859  F        3
Al      11.45512986       3.30681115      20.33826859  F        3
Al       4.29567370       5.78691952      20.33826859  F        3
Al       7.15945616       5.78691952      20.33826859  F        3
Al      10.02323862       5.78691952      20.33826859  F        3
Al      12.88702109       5.78691952      20.33826859  F        3
Al       5.72756493       8.26702788      20.33826859  F        3
Al       8.59134739       8.26702788      20.33826859  F        3
Al      11.45512986       8.26702788      20.33826859  F        3
Al      14.31891232       8.26702788      20.33826859  F        3
Al      -0.00000000       1.65340558      22.67653718  T        2
Al       2.86378246       1.65340558      22.67653718  T        2
Al       5.72756493       1.65340558      22.67653718  T        2
Al       8.59134739       1.65340558      22.67653718  T        2
Al       1.43189123       4.13351394      22.67653718  T        2
Al       4.29567370       4.13351394      22.67653718  T        2
Al       7.15945616       4.13351394      22.67653718  T        2
Al      10.02323862       4.13351394      22.67653718  T        2
Al       2.86378246       6.61362231      22.67653718  T        2
Al       5.72756493       6.61362231      22.67653718  T        2
Al       8.59134739       6.61362231      22.67653718  T        2
Al      11.45512986       6.61362231      22.67653718  T        2
Al       4.29567370       9.09373067      22.67653718  T        2
Al       7.15945616       9.09373067      22.67653718  T        2
Al      10.02323862       9.09373067      22.67653718  T        2
Al      12.88702109       9.09373067      22.67653718  T        2
Al       0.00000000       0.00000000      25.01480577  T        1
Al       2.86378246       0.00000000      25.01480577  T        1
Al       5.72756493       0.00000000      25.01480577  T        1
Al       8.59134739       0.00000000      25.01480577  T        1
Al       1.43189123       2.48010836      25.01480577  T        1
Al       4.29567370       2.48010836      25.01480577  T        1
Al       7.15945616       2.48010836      25.01480577  T        1
Al      10.02323862       2.48010836      25.01480577  T        1
Al       2.86378246       4.96021673      25.01480577  T        1
Al       5.72756493       4.96021673      25.01480577  T        1
Al       8.59134739       4.96021673      25.01480577  T        1
Al      11.45512986       4.96021673      25.01480577  T        1
Al       4.29567370       7.44032509      25.01480577  T        1
Al       7.15945616       7.44032509      25.01480577  T        1
Al      10.02323862       7.44032509      25.01480577  T        1
Al      12.88702109       7.44032509      25.01480577  T        1
O        0.00000000       0.00000000      28.21480577  T        0
H       -0.59630900       0.76323900      28.21480577  T        0
H       -0.59630900      -0.76323900      28.21480577  T        0
67
Lattice="11.45512985522207 0.0 0.0 5.727564927611035 9.92043345827187 0.0 0.0 0.0 43.01480577065395" Properties=species:S:1:pos:R:3:move_mask:L:1:tags:I:1 surface_element=Al miller="_JSON [1, 1, 1]" slab_size="_JSON [4, 4, 4]" vacuum_angstrom=18.0 fixed_layers=2 fixed_atom_indices="_JSON [0, 1, 2, 3, 4, 5, 6, 7, 8, 9, 10, 11, 12, 13, 14, 15, 16, 17, 18, 19, 20, 21, 22, 23, 24, 25, 26, 27, 28, 29, 30, 31]" system_name=al111_h2o adsorbate=H2O site=bridge orientation=dipole_down height_angstrom=2.0 structure_id=6a404ef4beba3a42 pbc="T T T"
Al       0.00000000       0.00000000      18.00000000  F        4
Al       2.86378246       0.00000000      18.00000000  F        4
Al       5.72756493       0.00000000      18.00000000  F        4
Al       8.59134739       0.00000000      18.00000000  F        4
Al       1.43189123       2.48010836      18.00000000  F        4
Al       4.29567370       2.48010836      18.00000000  F        4
Al       7.15945616       2.48010836      18.00000000  F        4
Al      10.02323862       2.48010836      18.00000000  F        4
Al       2.86378246       4.96021673      18.00000000  F        4
Al       5.72756493       4.96021673      18.00000000  F        4
Al       8.59134739       4.96021673      18.00000000  F        4
Al      11.45512986       4.96021673      18.00000000  F        4
Al       4.29567370       7.44032509      18.00000000  F        4
Al       7.15945616       7.44032509      18.00000000  F        4
Al      10.02323862       7.44032509      18.00000000  F        4
Al      12.88702109       7.44032509      18.00000000  F        4
Al       1.43189123       0.82670279      20.33826859  F        3
Al       4.29567370       0.82670279      20.33826859  F        3
Al       7.15945616       0.82670279      20.33826859  F        3
Al      10.02323862       0.82670279      20.33826859  F        3
Al       2.86378246       3.30681115      20.33826859  F        3
Al       5.72756493       3.30681115      20.33826859  F        3
Al       8.59134739       3.30681115      20.33826859  F        3
Al      11.45512986       3.30681115      20.33826859  F        3
Al       4.29567370       5.78691952      20.33826859  F        3
Al       7.15945616       5.78691952      20.33826859  F        3
Al      10.02323862       5.78691952      20.33826859  F        3
Al      12.88702109       5.78691952      20.33826859  F        3
Al       5.72756493       8.26702788      20.33826859  F        3
Al       8.59134739       8.26702788      20.33826859  F        3
Al      11.45512986       8.26702788      20.33826859  F        3
Al      14.31891232       8.26702788      20.33826859  F        3
Al      -0.00000000       1.65340558      22.67653718  T        2
Al       2.86378246       1.65340558      22.67653718  T        2
Al       5.72756493       1.65340558      22.67653718  T        2
Al       8.59134739       1.65340558      22.67653718  T        2
Al       1.43189123       4.13351394      22.67653718  T        2
Al       4.29567370       4.13351394      22.67653718  T        2
Al       7.15945616       4.13351394      22.67653718  T        2
Al      10.02323862       4.13351394      22.67653718  T        2
Al       2.86378246       6.61362231      22.67653718  T        2
Al       5.72756493       6.61362231      22.67653718  T        2
Al       8.59134739       6.61362231      22.67653718  T        2
Al      11.45512986       6.61362231      22.67653718  T        2
Al       4.29567370       9.09373067      22.67653718  T        2
Al       7.15945616       9.09373067      22.67653718  T        2
Al      10.02323862       9.09373067      22.67653718  T        2
Al      12.88702109       9.09373067      22.67653718  T        2
Al       0.00000000       0.00000000      25.01480577  T        1
Al       2.86378246       0.00000000      25.01480577  T        1
Al       5.72756493       0.00000000      25.01480577  T        1
Al       8.59134739       0.00000000      25.01480577  T        1
Al       1.43189123       2.48010836      25.01480577  T        1
Al       4.29567370       2.48010836      25.01480577  T        1
Al       7.15945616       2.48010836      25.01480577  T        1
Al      10.02323862       2.48010836      25.01480577  T        1
Al       2.86378246       4.96021673      25.01480577  T        1
Al       5.72756493       4.96021673      25.01480577  T        1
Al       8.59134739       4.96021673      25.01480577  T        1
Al      11.45512986       4.96021673      25.01480577  T        1
Al       4.29567370       7.44032509      25.01480577  T        1
Al       7.15945616       7.44032509      25.01480577  T        1
Al      10.02323862       7.44032509      25.01480577  T        1
Al      12.88702109       7.44032509      25.01480577  T        1
O        0.71594562       1.24005418      27.01480577  T        0
H        0.71594562       0.47681518      27.61111477  T        0
H        0.71594562       2.00329318      27.61111477  T        0
67
Lattice="11.45512985522207 0.0 0.0 5.727564927611035 9.92043345827187 0.0 0.0 0.0 43.01480577065395" Properties=species:S:1:pos:R:3:move_mask:L:1:tags:I:1 surface_element=Al miller="_JSON [1, 1, 1]" slab_size="_JSON [4, 4, 4]" vacuum_angstrom=18.0 fixed_layers=2 fixed_atom_indices="_JSON [0, 1, 2, 3, 4, 5, 6, 7, 8, 9, 10, 11, 12, 13, 14, 15, 16, 17, 18, 19, 20, 21, 22, 23, 24, 25, 26, 27, 28, 29, 30, 31]" system_name=al111_h2o adsorbate=H2O site=bridge orientation=dipole_down height_angstrom=2.4 structure_id=e0670881c1d40b48 pbc="T T T"
Al       0.00000000       0.00000000      18.00000000  F        4
Al       2.86378246       0.00000000      18.00000000  F        4
Al       5.72756493       0.00000000      18.00000000  F        4
Al       8.59134739       0.00000000      18.00000000  F        4
Al       1.43189123       2.48010836      18.00000000  F        4
Al       4.29567370       2.48010836      18.00000000  F        4
Al       7.15945616       2.48010836      18.00000000  F        4
Al      10.02323862       2.48010836      18.00000000  F        4
Al       2.86378246       4.96021673      18.00000000  F        4
Al       5.72756493       4.96021673      18.00000000  F        4
Al       8.59134739       4.96021673      18.00000000  F        4
Al      11.45512986       4.96021673      18.00000000  F        4
Al       4.29567370       7.44032509      18.00000000  F        4
Al       7.15945616       7.44032509      18.00000000  F        4
Al      10.02323862       7.44032509      18.00000000  F        4
Al      12.88702109       7.44032509      18.00000000  F        4
Al       1.43189123       0.82670279      20.33826859  F        3
Al       4.29567370       0.82670279      20.33826859  F        3
Al       7.15945616       0.82670279      20.33826859  F        3
Al      10.02323862       0.82670279      20.33826859  F        3
Al       2.86378246       3.30681115      20.33826859  F        3
Al       5.72756493       3.30681115      20.33826859  F        3
Al       8.59134739       3.30681115      20.33826859  F        3
Al      11.45512986       3.30681115      20.33826859  F        3
Al       4.29567370       5.78691952      20.33826859  F        3
Al       7.15945616       5.78691952      20.33826859  F        3
Al      10.02323862       5.78691952      20.33826859  F        3
Al      12.88702109       5.78691952      20.33826859  F        3
Al       5.72756493       8.26702788      20.33826859  F        3
Al       8.59134739       8.26702788      20.33826859  F        3
Al      11.45512986       8.26702788      20.33826859  F        3
Al      14.31891232       8.26702788      20.33826859  F        3
Al      -0.00000000       1.65340558      22.67653718  T        2
Al       2.86378246       1.65340558      22.67653718  T        2
Al       5.72756493       1.65340558      22.67653718  T        2
Al       8.59134739       1.65340558      22.67653718  T        2
Al       1.43189123       4.13351394      22.67653718  T        2
Al       4.29567370       4.13351394      22.67653718  T        2
Al       7.15945616       4.13351394      22.67653718  T        2
Al      10.02323862       4.13351394      22.67653718  T        2
Al       2.86378246       6.61362231      22.67653718  T        2
Al       5.72756493       6.61362231      22.67653718  T        2
Al       8.59134739       6.61362231      22.67653718  T        2
Al      11.45512986       6.61362231      22.67653718  T        2
Al       4.29567370       9.09373067      22.67653718  T        2
Al       7.15945616       9.09373067      22.67653718  T        2
Al      10.02323862       9.09373067      22.67653718  T        2
Al      12.88702109       9.09373067      22.67653718  T        2
Al       0.00000000       0.00000000      25.01480577  T        1
Al       2.86378246       0.00000000      25.01480577  T        1
Al       5.72756493       0.00000000      25.01480577  T        1
Al       8.59134739       0.00000000      25.01480577  T        1
Al       1.43189123       2.48010836      25.01480577  T        1
Al       4.29567370       2.48010836      25.01480577  T        1
Al       7.15945616       2.48010836      25.01480577  T        1
Al      10.02323862       2.48010836      25.01480577  T        1
Al       2.86378246       4.96021673      25.01480577  T        1
Al       5.72756493       4.96021673      25.01480577  T        1
Al       8.59134739       4.96021673      25.01480577  T        1
Al      11.45512986       4.96021673      25.01480577  T        1
Al       4.29567370       7.44032509      25.01480577  T        1
Al       7.15945616       7.44032509      25.01480577  T        1
Al      10.02323862       7.44032509      25.01480577  T        1
Al      12.88702109       7.44032509      25.01480577  T        1
O        0.71594562       1.24005418      27.41480577  T        0
H        0.71594562       0.47681518      28.01111477  T        0
H        0.71594562       2.00329318      28.01111477  T        0
67
Lattice="11.45512985522207 0.0 0.0 5.727564927611035 9.92043345827187 0.0 0.0 0.0 43.01480577065395" Properties=species:S:1:pos:R:3:move_mask:L:1:tags:I:1 surface_element=Al miller="_JSON [1, 1, 1]" slab_size="_JSON [4, 4, 4]" vacuum_angstrom=18.0 fixed_layers=2 fixed_atom_indices="_JSON [0, 1, 2, 3, 4, 5, 6, 7, 8, 9, 10, 11, 12, 13, 14, 15, 16, 17, 18, 19, 20, 21, 22, 23, 24, 25, 26, 27, 28, 29, 30, 31]" system_name=al111_h2o adsorbate=H2O site=bridge orientation=dipole_down height_angstrom=2.8 structure_id=ad4b747294fdaa6b pbc="T T T"
Al       0.00000000       0.00000000      18.00000000  F        4
Al       2.86378246       0.00000000      18.00000000  F        4
Al       5.72756493       0.00000000      18.00000000  F        4
Al       8.59134739       0.00000000      18.00000000  F        4
Al       1.43189123       2.48010836      18.00000000  F        4
Al       4.29567370       2.48010836      18.00000000  F        4
Al       7.15945616       2.48010836      18.00000000  F        4
Al      10.02323862       2.48010836      18.00000000  F        4
Al       2.86378246       4.96021673      18.00000000  F        4
Al       5.72756493       4.96021673      18.00000000  F        4
Al       8.59134739       4.96021673      18.00000000  F        4
Al      11.45512986       4.96021673      18.00000000  F        4
Al       4.29567370       7.44032509      18.00000000  F        4
Al       7.15945616       7.44032509      18.00000000  F        4
Al      10.02323862       7.44032509      18.00000000  F        4
Al      12.88702109       7.44032509      18.00000000  F        4
Al       1.43189123       0.82670279      20.33826859  F        3
Al       4.29567370       0.82670279      20.33826859  F        3
Al       7.15945616       0.82670279      20.33826859  F        3
Al      10.02323862       0.82670279      20.33826859  F        3
Al       2.86378246       3.30681115      20.33826859  F        3
Al       5.72756493       3.30681115      20.33826859  F        3
Al       8.59134739       3.30681115      20.33826859  F        3
Al      11.45512986       3.30681115      20.33826859  F        3
Al       4.29567370       5.78691952      20.33826859  F        3
Al       7.15945616       5.78691952      20.33826859  F        3
Al      10.02323862       5.78691952      20.33826859  F        3
Al      12.88702109       5.78691952      20.33826859  F        3
Al       5.72756493       8.26702788      20.33826859  F        3
Al       8.59134739       8.26702788      20.33826859  F        3
Al      11.45512986       8.26702788      20.33826859  F        3
Al      14.31891232       8.26702788      20.33826859  F        3
Al      -0.00000000       1.65340558      22.67653718  T        2
Al       2.86378246       1.65340558      22.67653718  T        2
Al       5.72756493       1.65340558      22.67653718  T        2
Al       8.59134739       1.65340558      22.67653718  T        2
Al       1.43189123       4.13351394      22.67653718  T        2
Al       4.29567370       4.13351394      22.67653718  T        2
Al       7.15945616       4.13351394      22.67653718  T        2
Al      10.02323862       4.13351394      22.67653718  T        2
Al       2.86378246       6.61362231      22.67653718  T        2
Al       5.72756493       6.61362231      22.67653718  T        2
Al       8.59134739       6.61362231      22.67653718  T        2
Al      11.45512986       6.61362231      22.67653718  T        2
Al       4.29567370       9.09373067      22.67653718  T        2
Al       7.15945616       9.09373067      22.67653718  T        2
Al      10.02323862       9.09373067      22.67653718  T        2
Al      12.88702109       9.09373067      22.67653718  T        2
Al       0.00000000       0.00000000      25.01480577  T        1
Al       2.86378246       0.00000000      25.01480577  T        1
Al       5.72756493       0.00000000      25.01480577  T        1
Al       8.59134739       0.00000000      25.01480577  T        1
Al       1.43189123       2.48010836      25.01480577  T        1
Al       4.29567370       2.48010836      25.01480577  T        1
Al       7.15945616       2.48010836      25.01480577  T        1
Al      10.02323862       2.48010836      25.01480577  T        1
Al       2.86378246       4.96021673      25.01480577  T        1
Al       5.72756493       4.96021673      25.01480577  T        1
Al       8.59134739       4.96021673      25.01480577  T        1
Al      11.45512986       4.96021673      25.01480577  T        1
Al       4.29567370       7.44032509      25.01480577  T        1
Al       7.15945616       7.44032509      25.01480577  T        1
Al      10.02323862       7.44032509      25.01480577  T        1
Al      12.88702109       7.44032509      25.01480577  T        1
O        0.71594562       1.24005418      27.81480577  T        0
H        0.71594562       0.47681518      28.41111477  T        0
H        0.71594562       2.00329318      28.41111477  T        0
67
Lattice="11.45512985522207 0.0 0.0 5.727564927611035 9.92043345827187 0.0 0.0 0.0 43.01480577065395" Properties=species:S:1:pos:R:3:move_mask:L:1:tags:I:1 surface_element=Al miller="_JSON [1, 1, 1]" slab_size="_JSON [4, 4, 4]" vacuum_angstrom=18.0 fixed_layers=2 fixed_atom_indices="_JSON [0, 1, 2, 3, 4, 5, 6, 7, 8, 9, 10, 11, 12, 13, 14, 15, 16, 17, 18, 19, 20, 21, 22, 23, 24, 25, 26, 27, 28, 29, 30, 31]" system_name=al111_h2o adsorbate=H2O site=bridge orientation=dipole_down height_angstrom=3.2 structure_id=869c396e0032a2a2 pbc="T T T"
Al       0.00000000       0.00000000      18.00000000  F        4
Al       2.86378246       0.00000000      18.00000000  F        4
Al       5.72756493       0.00000000      18.00000000  F        4
Al       8.59134739       0.00000000      18.00000000  F        4
Al       1.43189123       2.48010836      18.00000000  F        4
Al       4.29567370       2.48010836      18.00000000  F        4
Al       7.15945616       2.48010836      18.00000000  F        4
Al      10.02323862       2.48010836      18.00000000  F        4
Al       2.86378246       4.96021673      18.00000000  F        4
Al       5.72756493       4.96021673      18.00000000  F        4
Al       8.59134739       4.96021673      18.00000000  F        4
Al      11.45512986       4.96021673      18.00000000  F        4
Al       4.29567370       7.44032509      18.00000000  F        4
Al       7.15945616       7.44032509      18.00000000  F        4
Al      10.02323862       7.44032509      18.00000000  F        4
Al      12.88702109       7.44032509      18.00000000  F        4
Al       1.43189123       0.82670279      20.33826859  F        3
Al       4.29567370       0.82670279      20.33826859  F        3
Al       7.15945616       0.82670279      20.33826859  F        3
Al      10.02323862       0.82670279      20.33826859  F        3
Al       2.86378246       3.30681115      20.33826859  F        3
Al       5.72756493       3.30681115      20.33826859  F        3
Al       8.59134739       3.30681115      20.33826859  F        3
Al      11.45512986       3.30681115      20.33826859  F        3
Al       4.29567370       5.78691952      20.33826859  F        3
Al       7.15945616       5.78691952      20.33826859  F        3
Al      10.02323862       5.78691952      20.33826859  F        3
Al      12.88702109       5.78691952      20.33826859  F        3
Al       5.72756493       8.26702788      20.33826859  F        3
Al       8.59134739       8.26702788      20.33826859  F        3
Al      11.45512986       8.26702788      20.33826859  F        3
Al      14.31891232       8.26702788      20.33826859  F        3
Al      -0.00000000       1.65340558      22.67653718  T        2
Al       2.86378246       1.65340558      22.67653718  T        2
Al       5.72756493       1.65340558      22.67653718  T        2
Al       8.59134739       1.65340558      22.67653718  T        2
Al       1.43189123       4.13351394      22.67653718  T        2
Al       4.29567370       4.13351394      22.67653718  T        2
Al       7.15945616       4.13351394      22.67653718  T        2
Al      10.02323862       4.13351394      22.67653718  T        2
Al       2.86378246       6.61362231      22.67653718  T        2
Al       5.72756493       6.61362231      22.67653718  T        2
Al       8.59134739       6.61362231      22.67653718  T        2
Al      11.45512986       6.61362231      22.67653718  T        2
Al       4.29567370       9.09373067      22.67653718  T        2
Al       7.15945616       9.09373067      22.67653718  T        2
Al      10.02323862       9.09373067      22.67653718  T        2
Al      12.88702109       9.09373067      22.67653718  T        2
Al       0.00000000       0.00000000      25.01480577  T        1
Al       2.86378246       0.00000000      25.01480577  T        1
Al       5.72756493       0.00000000      25.01480577  T        1
Al       8.59134739       0.00000000      25.01480577  T        1
Al       1.43189123       2.48010836      25.01480577  T        1
Al       4.29567370       2.48010836      25.01480577  T        1
Al       7.15945616       2.48010836      25.01480577  T        1
Al      10.02323862       2.48010836      25.01480577  T        1
Al       2.86378246       4.96021673      25.01480577  T        1
Al       5.72756493       4.96021673      25.01480577  T        1
Al       8.59134739       4.96021673      25.01480577  T        1
Al      11.45512986       4.96021673      25.01480577  T        1
Al       4.29567370       7.44032509      25.01480577  T        1
Al       7.15945616       7.44032509      25.01480577  T        1
Al      10.02323862       7.44032509      25.01480577  T        1
Al      12.88702109       7.44032509      25.01480577  T        1
O        0.71594562       1.24005418      28.21480577  T        0
H        0.71594562       0.47681518      28.81111477  T        0
H        0.71594562       2.00329318      28.81111477  T        0
67
Lattice="11.45512985522207 0.0 0.0 5.727564927611035 9.92043345827187 0.0 0.0 0.0 43.01480577065395" Properties=species:S:1:pos:R:3:move_mask:L:1:tags:I:1 surface_element=Al miller="_JSON [1, 1, 1]" slab_size="_JSON [4, 4, 4]" vacuum_angstrom=18.0 fixed_layers=2 fixed_atom_indices="_JSON [0, 1, 2, 3, 4, 5, 6, 7, 8, 9, 10, 11, 12, 13, 14, 15, 16, 17, 18, 19, 20, 21, 22, 23, 24, 25, 26, 27, 28, 29, 30, 31]" system_name=al111_h2o adsorbate=H2O site=bridge orientation=dipole_up height_angstrom=2.0 structure_id=944f0cf37a61d3d9 pbc="T T T"
Al       0.00000000       0.00000000      18.00000000  F        4
Al       2.86378246       0.00000000      18.00000000  F        4
Al       5.72756493       0.00000000      18.00000000  F        4
Al       8.59134739       0.00000000      18.00000000  F        4
Al       1.43189123       2.48010836      18.00000000  F        4
Al       4.29567370       2.48010836      18.00000000  F        4
Al       7.15945616       2.48010836      18.00000000  F        4
Al      10.02323862       2.48010836      18.00000000  F        4
Al       2.86378246       4.96021673      18.00000000  F        4
Al       5.72756493       4.96021673      18.00000000  F        4
Al       8.59134739       4.96021673      18.00000000  F        4
Al      11.45512986       4.96021673      18.00000000  F        4
Al       4.29567370       7.44032509      18.00000000  F        4
Al       7.15945616       7.44032509      18.00000000  F        4
Al      10.02323862       7.44032509      18.00000000  F        4
Al      12.88702109       7.44032509      18.00000000  F        4
Al       1.43189123       0.82670279      20.33826859  F        3
Al       4.29567370       0.82670279      20.33826859  F        3
Al       7.15945616       0.82670279      20.33826859  F        3
Al      10.02323862       0.82670279      20.33826859  F        3
Al       2.86378246       3.30681115      20.33826859  F        3
Al       5.72756493       3.30681115      20.33826859  F        3
Al       8.59134739       3.30681115      20.33826859  F        3
Al      11.45512986       3.30681115      20.33826859  F        3
Al       4.29567370       5.78691952      20.33826859  F        3
Al       7.15945616       5.78691952      20.33826859  F        3
Al      10.02323862       5.78691952      20.33826859  F        3
Al      12.88702109       5.78691952      20.33826859  F        3
Al       5.72756493       8.26702788      20.33826859  F        3
Al       8.59134739       8.26702788      20.33826859  F        3
Al      11.45512986       8.26702788      20.33826859  F        3
Al      14.31891232       8.26702788      20.33826859  F        3
Al      -0.00000000       1.65340558      22.67653718  T        2
Al       2.86378246       1.65340558      22.67653718  T        2
Al       5.72756493       1.65340558      22.67653718  T        2
Al       8.59134739       1.65340558      22.67653718  T        2
Al       1.43189123       4.13351394      22.67653718  T        2
Al       4.29567370       4.13351394      22.67653718  T        2
Al       7.15945616       4.13351394      22.67653718  T        2
Al      10.02323862       4.13351394      22.67653718  T        2
Al       2.86378246       6.61362231      22.67653718  T        2
Al       5.72756493       6.61362231      22.67653718  T        2
Al       8.59134739       6.61362231      22.67653718  T        2
Al      11.45512986       6.61362231      22.67653718  T        2
Al       4.29567370       9.09373067      22.67653718  T        2
Al       7.15945616       9.09373067      22.67653718  T        2
Al      10.02323862       9.09373067      22.67653718  T        2
Al      12.88702109       9.09373067      22.67653718  T        2
Al       0.00000000       0.00000000      25.01480577  T        1
Al       2.86378246       0.00000000      25.01480577  T        1
Al       5.72756493       0.00000000      25.01480577  T        1
Al       8.59134739       0.00000000      25.01480577  T        1
Al       1.43189123       2.48010836      25.01480577  T        1
Al       4.29567370       2.48010836      25.01480577  T        1
Al       7.15945616       2.48010836      25.01480577  T        1
Al      10.02323862       2.48010836      25.01480577  T        1
Al       2.86378246       4.96021673      25.01480577  T        1
Al       5.72756493       4.96021673      25.01480577  T        1
Al       8.59134739       4.96021673      25.01480577  T        1
Al      11.45512986       4.96021673      25.01480577  T        1
Al       4.29567370       7.44032509      25.01480577  T        1
Al       7.15945616       7.44032509      25.01480577  T        1
Al      10.02323862       7.44032509      25.01480577  T        1
Al      12.88702109       7.44032509      25.01480577  T        1
O        0.71594562       1.24005418      27.01480577  T        0
H        0.71594562       2.00329318      26.41849677  T        0
H        0.71594562       0.47681518      26.41849677  T        0
67
Lattice="11.45512985522207 0.0 0.0 5.727564927611035 9.92043345827187 0.0 0.0 0.0 43.01480577065395" Properties=species:S:1:pos:R:3:move_mask:L:1:tags:I:1 surface_element=Al miller="_JSON [1, 1, 1]" slab_size="_JSON [4, 4, 4]" vacuum_angstrom=18.0 fixed_layers=2 fixed_atom_indices="_JSON [0, 1, 2, 3, 4, 5, 6, 7, 8, 9, 10, 11, 12, 13, 14, 15, 16, 17, 18, 19, 20, 21, 22, 23, 24, 25, 26, 27, 28, 29, 30, 31]" system_name=al111_h2o adsorbate=H2O site=bridge orientation=dipole_up height_angstrom=2.4 structure_id=cb6fd04a0041b0d0 pbc="T T T"
Al       0.00000000       0.00000000      18.00000000  F        4
Al       2.86378246       0.00000000      18.00000000  F        4
Al       5.72756493       0.00000000      18.00000000  F        4
Al       8.59134739       0.00000000      18.00000000  F        4
Al       1.43189123       2.48010836      18.00000000  F        4
Al       4.29567370       2.48010836      18.00000000  F        4
Al       7.15945616       2.48010836      18.00000000  F        4
Al      10.02323862       2.48010836      18.00000000  F        4
Al       2.86378246       4.96021673      18.00000000  F        4
Al       5.72756493       4.96021673      18.00000000  F        4
Al       8.59134739       4.96021673      18.00000000  F        4
Al      11.45512986       4.96021673      18.00000000  F        4
Al       4.29567370       7.44032509      18.00000000  F        4
Al       7.15945616       7.44032509      18.00000000  F        4
Al      10.02323862       7.44032509      18.00000000  F        4
Al      12.88702109       7.44032509      18.00000000  F        4
Al       1.43189123       0.82670279      20.33826859  F        3
Al       4.29567370       0.82670279      20.33826859  F        3
Al       7.15945616       0.82670279      20.33826859  F        3
Al      10.02323862       0.82670279      20.33826859  F        3
Al       2.86378246       3.30681115      20.33826859  F        3
Al       5.72756493       3.30681115      20.33826859  F        3
Al       8.59134739       3.30681115      20.33826859  F        3
Al      11.45512986       3.30681115      20.33826859  F        3
Al       4.29567370       5.78691952      20.33826859  F        3
Al       7.15945616       5.78691952      20.33826859  F        3
Al      10.02323862       5.78691952      20.33826859  F        3
Al      12.88702109       5.78691952      20.33826859  F        3
Al       5.72756493       8.26702788      20.33826859  F        3
Al       8.59134739       8.26702788      20.33826859  F        3
Al      11.45512986       8.26702788      20.33826859  F        3
Al      14.31891232       8.26702788      20.33826859  F        3
Al      -0.00000000       1.65340558      22.67653718  T        2
Al       2.86378246       1.65340558      22.67653718  T        2
Al       5.72756493       1.65340558      22.67653718  T        2
Al       8.59134739       1.65340558      22.67653718  T        2
Al       1.43189123       4.13351394      22.67653718  T        2
Al       4.29567370       4.13351394      22.67653718  T        2
Al       7.15945616       4.13351394      22.67653718  T        2
Al      10.02323862       4.13351394      22.67653718  T        2
Al       2.86378246       6.61362231      22.67653718  T        2
Al       5.72756493       6.61362231      22.67653718  T        2
Al       8.59134739       6.61362231      22.67653718  T        2
Al      11.45512986       6.61362231      22.67653718  T        2
Al       4.29567370       9.09373067      22.67653718  T        2
Al       7.15945616       9.09373067      22.67653718  T        2
Al      10.02323862       9.09373067      22.67653718  T        2
Al      12.88702109       9.09373067      22.67653718  T        2
Al       0.00000000       0.00000000      25.01480577  T        1
Al       2.86378246       0.00000000      25.01480577  T        1
Al       5.72756493       0.00000000      25.01480577  T        1
Al       8.59134739       0.00000000      25.01480577  T        1
Al       1.43189123       2.48010836      25.01480577  T        1
Al       4.29567370       2.48010836      25.01480577  T        1
Al       7.15945616       2.48010836      25.01480577  T        1
Al      10.02323862       2.48010836      25.01480577  T        1
Al       2.86378246       4.96021673      25.01480577  T        1
Al       5.72756493       4.96021673      25.01480577  T        1
Al       8.59134739       4.96021673      25.01480577  T        1
Al      11.45512986       4.96021673      25.01480577  T        1
Al       4.29567370       7.44032509      25.01480577  T        1
Al       7.15945616       7.44032509      25.01480577  T        1
Al      10.02323862       7.44032509      25.01480577  T        1
Al      12.88702109       7.44032509      25.01480577  T        1
O        0.71594562       1.24005418      27.41480577  T        0
H        0.71594562       2.00329318      26.81849677  T        0
H        0.71594562       0.47681518      26.81849677  T        0
67
Lattice="11.45512985522207 0.0 0.0 5.727564927611035 9.92043345827187 0.0 0.0 0.0 43.01480577065395" Properties=species:S:1:pos:R:3:move_mask:L:1:tags:I:1 surface_element=Al miller="_JSON [1, 1, 1]" slab_size="_JSON [4, 4, 4]" vacuum_angstrom=18.0 fixed_layers=2 fixed_atom_indices="_JSON [0, 1, 2, 3, 4, 5, 6, 7, 8, 9, 10, 11, 12, 13, 14, 15, 16, 17, 18, 19, 20, 21, 22, 23, 24, 25, 26, 27, 28, 29, 30, 31]" system_name=al111_h2o adsorbate=H2O site=bridge orientation=dipole_up height_angstrom=2.8 structure_id=f89c0e0703bd12d2 pbc="T T T"
Al       0.00000000       0.00000000      18.00000000  F        4
Al       2.86378246       0.00000000      18.00000000  F        4
Al       5.72756493       0.00000000      18.00000000  F        4
Al       8.59134739       0.00000000      18.00000000  F        4
Al       1.43189123       2.48010836      18.00000000  F        4
Al       4.29567370       2.48010836      18.00000000  F        4
Al       7.15945616       2.48010836      18.00000000  F        4
Al      10.02323862       2.48010836      18.00000000  F        4
Al       2.86378246       4.96021673      18.00000000  F        4
Al       5.72756493       4.96021673      18.00000000  F        4
Al       8.59134739       4.96021673      18.00000000  F        4
Al      11.45512986       4.96021673      18.00000000  F        4
Al       4.29567370       7.44032509      18.00000000  F        4
Al       7.15945616       7.44032509      18.00000000  F        4
Al      10.02323862       7.44032509      18.00000000  F        4
Al      12.88702109       7.44032509      18.00000000  F        4
Al       1.43189123       0.82670279      20.33826859  F        3
Al       4.29567370       0.82670279      20.33826859  F        3
Al       7.15945616       0.82670279      20.33826859  F        3
Al      10.02323862       0.82670279      20.33826859  F        3
Al       2.86378246       3.30681115      20.33826859  F        3
Al       5.72756493       3.30681115      20.33826859  F        3
Al       8.59134739       3.30681115      20.33826859  F        3
Al      11.45512986       3.30681115      20.33826859  F        3
Al       4.29567370       5.78691952      20.33826859  F        3
Al       7.15945616       5.78691952      20.33826859  F        3
Al      10.02323862       5.78691952      20.33826859  F        3
Al      12.88702109       5.78691952      20.33826859  F        3
Al       5.72756493       8.26702788      20.33826859  F        3
Al       8.59134739       8.26702788      20.33826859  F        3
Al      11.45512986       8.26702788      20.33826859  F        3
Al      14.31891232       8.26702788      20.33826859  F        3
Al      -0.00000000       1.65340558      22.67653718  T        2
Al       2.86378246       1.65340558      22.67653718  T        2
Al       5.72756493       1.65340558      22.67653718  T        2
Al       8.59134739       1.65340558      22.67653718  T        2
Al       1.43189123       4.13351394      22.67653718  T        2
Al       4.29567370       4.13351394      22.67653718  T        2
Al       7.15945616       4.13351394      22.67653718  T        2
Al      10.02323862       4.13351394      22.67653718  T        2
Al       2.86378246       6.61362231      22.67653718  T        2
Al       5.72756493       6.61362231      22.67653718  T        2
Al       8.59134739       6.61362231      22.67653718  T        2
Al      11.45512986       6.61362231      22.67653718  T        2
Al       4.29567370       9.09373067      22.67653718  T        2
Al       7.15945616       9.09373067      22.67653718  T        2
Al      10.02323862       9.09373067      22.67653718  T        2
Al      12.88702109       9.09373067      22.67653718  T        2
Al       0.00000000       0.00000000      25.01480577  T        1
Al       2.86378246       0.00000000      25.01480577  T        1
Al       5.72756493       0.00000000      25.01480577  T        1
Al       8.59134739       0.00000000      25.01480577  T        1
Al       1.43189123       2.48010836      25.01480577  T        1
Al       4.29567370       2.48010836      25.01480577  T        1
Al       7.15945616       2.48010836      25.01480577  T        1
Al      10.02323862       2.48010836      25.01480577  T        1
Al       2.86378246       4.96021673      25.01480577  T        1
Al       5.72756493       4.96021673      25.01480577  T        1
Al       8.59134739       4.96021673      25.01480577  T        1
Al      11.45512986       4.96021673      25.01480577  T        1
Al       4.29567370       7.44032509      25.01480577  T        1
Al       7.15945616       7.44032509      25.01480577  T        1
Al      10.02323862       7.44032509      25.01480577  T        1
Al      12.88702109       7.44032509      25.01480577  T        1
O        0.71594562       1.24005418      27.81480577  T        0
H        0.71594562       2.00329318      27.21849677  T        0
H        0.71594562       0.47681518      27.21849677  T        0
67
Lattice="11.45512985522207 0.0 0.0 5.727564927611035 9.92043345827187 0.0 0.0 0.0 43.01480577065395" Properties=species:S:1:pos:R:3:move_mask:L:1:tags:I:1 surface_element=Al miller="_JSON [1, 1, 1]" slab_size="_JSON [4, 4, 4]" vacuum_angstrom=18.0 fixed_layers=2 fixed_atom_indices="_JSON [0, 1, 2, 3, 4, 5, 6, 7, 8, 9, 10, 11, 12, 13, 14, 15, 16, 17, 18, 19, 20, 21, 22, 23, 24, 25, 26, 27, 28, 29, 30, 31]" system_name=al111_h2o adsorbate=H2O site=bridge orientation=dipole_up height_angstrom=3.2 structure_id=fcf2618f3ae82cde pbc="T T T"
Al       0.00000000       0.00000000      18.00000000  F        4
Al       2.86378246       0.00000000      18.00000000  F        4
Al       5.72756493       0.00000000      18.00000000  F        4
Al       8.59134739       0.00000000      18.00000000  F        4
Al       1.43189123       2.48010836      18.00000000  F        4
Al       4.29567370       2.48010836      18.00000000  F        4
Al       7.15945616       2.48010836      18.00000000  F        4
Al      10.02323862       2.48010836      18.00000000  F        4
Al       2.86378246       4.96021673      18.00000000  F        4
Al       5.72756493       4.96021673      18.00000000  F        4
Al       8.59134739       4.96021673      18.00000000  F        4
Al      11.45512986       4.96021673      18.00000000  F        4
Al       4.29567370       7.44032509      18.00000000  F        4
Al       7.15945616       7.44032509      18.00000000  F        4
Al      10.02323862       7.44032509      18.00000000  F        4
Al      12.88702109       7.44032509      18.00000000  F        4
Al       1.43189123       0.82670279      20.33826859  F        3
Al       4.29567370       0.82670279      20.33826859  F        3
Al       7.15945616       0.82670279      20.33826859  F        3
Al      10.02323862       0.82670279      20.33826859  F        3
Al       2.86378246       3.30681115      20.33826859  F        3
Al       5.72756493       3.30681115      20.33826859  F        3
Al       8.59134739       3.30681115      20.33826859  F        3
Al      11.45512986       3.30681115      20.33826859  F        3
Al       4.29567370       5.78691952      20.33826859  F        3
Al       7.15945616       5.78691952      20.33826859  F        3
Al      10.02323862       5.78691952      20.33826859  F        3
Al      12.88702109       5.78691952      20.33826859  F        3
Al       5.72756493       8.26702788      20.33826859  F        3
Al       8.59134739       8.26702788      20.33826859  F        3
Al      11.45512986       8.26702788      20.33826859  F        3
Al      14.31891232       8.26702788      20.33826859  F        3
Al      -0.00000000       1.65340558      22.67653718  T        2
Al       2.86378246       1.65340558      22.67653718  T        2
Al       5.72756493       1.65340558      22.67653718  T        2
Al       8.59134739       1.65340558      22.67653718  T        2
Al       1.43189123       4.13351394      22.67653718  T        2
Al       4.29567370       4.13351394      22.67653718  T        2
Al       7.15945616       4.13351394      22.67653718  T        2
Al      10.02323862       4.13351394      22.67653718  T        2
Al       2.86378246       6.61362231      22.67653718  T        2
Al       5.72756493       6.61362231      22.67653718  T        2
Al       8.59134739       6.61362231      22.67653718  T        2
Al      11.45512986       6.61362231      22.67653718  T        2
Al       4.29567370       9.09373067      22.67653718  T        2
Al       7.15945616       9.09373067      22.67653718  T        2
Al      10.02323862       9.09373067      22.67653718  T        2
Al      12.88702109       9.09373067      22.67653718  T        2
Al       0.00000000       0.00000000      25.01480577  T        1
Al       2.86378246       0.00000000      25.01480577  T        1
Al       5.72756493       0.00000000      25.01480577  T        1
Al       8.59134739       0.00000000      25.01480577  T        1
Al       1.43189123       2.48010836      25.01480577  T        1
Al       4.29567370       2.48010836      25.01480577  T        1
Al       7.15945616       2.48010836      25.01480577  T        1
Al      10.02323862       2.48010836      25.01480577  T        1
Al       2.86378246       4.96021673      25.01480577  T        1
Al       5.72756493       4.96021673      25.01480577  T        1
Al       8.59134739       4.96021673      25.01480577  T        1
Al      11.45512986       4.96021673      25.01480577  T        1
Al       4.29567370       7.44032509      25.01480577  T        1
Al       7.15945616       7.44032509      25.01480577  T        1
Al      10.02323862       7.44032509      25.01480577  T        1
Al      12.88702109       7.44032509      25.01480577  T        1
O        0.71594562       1.24005418      28.21480577  T        0
H        0.71594562       2.00329318      27.61849677  T        0
H        0.71594562       0.47681518      27.61849677  T        0
67
Lattice="11.45512985522207 0.0 0.0 5.727564927611035 9.92043345827187 0.0 0.0 0.0 43.01480577065395" Properties=species:S:1:pos:R:3:move_mask:L:1:tags:I:1 surface_element=Al miller="_JSON [1, 1, 1]" slab_size="_JSON [4, 4, 4]" vacuum_angstrom=18.0 fixed_layers=2 fixed_atom_indices="_JSON [0, 1, 2, 3, 4, 5, 6, 7, 8, 9, 10, 11, 12, 13, 14, 15, 16, 17, 18, 19, 20, 21, 22, 23, 24, 25, 26, 27, 28, 29, 30, 31]" system_name=al111_h2o adsorbate=H2O site=bridge orientation=flat height_angstrom=2.0 structure_id=afa74e09b3b3a1e0 pbc="T T T"
Al       0.00000000       0.00000000      18.00000000  F        4
Al       2.86378246       0.00000000      18.00000000  F        4
Al       5.72756493       0.00000000      18.00000000  F        4
Al       8.59134739       0.00000000      18.00000000  F        4
Al       1.43189123       2.48010836      18.00000000  F        4
Al       4.29567370       2.48010836      18.00000000  F        4
Al       7.15945616       2.48010836      18.00000000  F        4
Al      10.02323862       2.48010836      18.00000000  F        4
Al       2.86378246       4.96021673      18.00000000  F        4
Al       5.72756493       4.96021673      18.00000000  F        4
Al       8.59134739       4.96021673      18.00000000  F        4
Al      11.45512986       4.96021673      18.00000000  F        4
Al       4.29567370       7.44032509      18.00000000  F        4
Al       7.15945616       7.44032509      18.00000000  F        4
Al      10.02323862       7.44032509      18.00000000  F        4
Al      12.88702109       7.44032509      18.00000000  F        4
Al       1.43189123       0.82670279      20.33826859  F        3
Al       4.29567370       0.82670279      20.33826859  F        3
Al       7.15945616       0.82670279      20.33826859  F        3
Al      10.02323862       0.82670279      20.33826859  F        3
Al       2.86378246       3.30681115      20.33826859  F        3
Al       5.72756493       3.30681115      20.33826859  F        3
Al       8.59134739       3.30681115      20.33826859  F        3
Al      11.45512986       3.30681115      20.33826859  F        3
Al       4.29567370       5.78691952      20.33826859  F        3
Al       7.15945616       5.78691952      20.33826859  F        3
Al      10.02323862       5.78691952      20.33826859  F        3
Al      12.88702109       5.78691952      20.33826859  F        3
Al       5.72756493       8.26702788      20.33826859  F        3
Al       8.59134739       8.26702788      20.33826859  F        3
Al      11.45512986       8.26702788      20.33826859  F        3
Al      14.31891232       8.26702788      20.33826859  F        3
Al      -0.00000000       1.65340558      22.67653718  T        2
Al       2.86378246       1.65340558      22.67653718  T        2
Al       5.72756493       1.65340558      22.67653718  T        2
Al       8.59134739       1.65340558      22.67653718  T        2
Al       1.43189123       4.13351394      22.67653718  T        2
Al       4.29567370       4.13351394      22.67653718  T        2
Al       7.15945616       4.13351394      22.67653718  T        2
Al      10.02323862       4.13351394      22.67653718  T        2
Al       2.86378246       6.61362231      22.67653718  T        2
Al       5.72756493       6.61362231      22.67653718  T        2
Al       8.59134739       6.61362231      22.67653718  T        2
Al      11.45512986       6.61362231      22.67653718  T        2
Al       4.29567370       9.09373067      22.67653718  T        2
Al       7.15945616       9.09373067      22.67653718  T        2
Al      10.02323862       9.09373067      22.67653718  T        2
Al      12.88702109       9.09373067      22.67653718  T        2
Al       0.00000000       0.00000000      25.01480577  T        1
Al       2.86378246       0.00000000      25.01480577  T        1
Al       5.72756493       0.00000000      25.01480577  T        1
Al       8.59134739       0.00000000      25.01480577  T        1
Al       1.43189123       2.48010836      25.01480577  T        1
Al       4.29567370       2.48010836      25.01480577  T        1
Al       7.15945616       2.48010836      25.01480577  T        1
Al      10.02323862       2.48010836      25.01480577  T        1
Al       2.86378246       4.96021673      25.01480577  T        1
Al       5.72756493       4.96021673      25.01480577  T        1
Al       8.59134739       4.96021673      25.01480577  T        1
Al      11.45512986       4.96021673      25.01480577  T        1
Al       4.29567370       7.44032509      25.01480577  T        1
Al       7.15945616       7.44032509      25.01480577  T        1
Al      10.02323862       7.44032509      25.01480577  T        1
Al      12.88702109       7.44032509      25.01480577  T        1
O        0.71594562       1.24005418      27.01480577  T        0
H        0.11963662       2.00329318      27.01480577  T        0
H        0.11963662       0.47681518      27.01480577  T        0
67
Lattice="11.45512985522207 0.0 0.0 5.727564927611035 9.92043345827187 0.0 0.0 0.0 43.01480577065395" Properties=species:S:1:pos:R:3:move_mask:L:1:tags:I:1 surface_element=Al miller="_JSON [1, 1, 1]" slab_size="_JSON [4, 4, 4]" vacuum_angstrom=18.0 fixed_layers=2 fixed_atom_indices="_JSON [0, 1, 2, 3, 4, 5, 6, 7, 8, 9, 10, 11, 12, 13, 14, 15, 16, 17, 18, 19, 20, 21, 22, 23, 24, 25, 26, 27, 28, 29, 30, 31]" system_name=al111_h2o adsorbate=H2O site=bridge orientation=flat height_angstrom=2.4 structure_id=d7d46a1aa2af4412 pbc="T T T"
Al       0.00000000       0.00000000      18.00000000  F        4
Al       2.86378246       0.00000000      18.00000000  F        4
Al       5.72756493       0.00000000      18.00000000  F        4
Al       8.59134739       0.00000000      18.00000000  F        4
Al       1.43189123       2.48010836      18.00000000  F        4
Al       4.29567370       2.48010836      18.00000000  F        4
Al       7.15945616       2.48010836      18.00000000  F        4
Al      10.02323862       2.48010836      18.00000000  F        4
Al       2.86378246       4.96021673      18.00000000  F        4
Al       5.72756493       4.96021673      18.00000000  F        4
Al       8.59134739       4.96021673      18.00000000  F        4
Al      11.45512986       4.96021673      18.00000000  F        4
Al       4.29567370       7.44032509      18.00000000  F        4
Al       7.15945616       7.44032509      18.00000000  F        4
Al      10.02323862       7.44032509      18.00000000  F        4
Al      12.88702109       7.44032509      18.00000000  F        4
Al       1.43189123       0.82670279      20.33826859  F        3
Al       4.29567370       0.82670279      20.33826859  F        3
Al       7.15945616       0.82670279      20.33826859  F        3
Al      10.02323862       0.82670279      20.33826859  F        3
Al       2.86378246       3.30681115      20.33826859  F        3
Al       5.72756493       3.30681115      20.33826859  F        3
Al       8.59134739       3.30681115      20.33826859  F        3
Al      11.45512986       3.30681115      20.33826859  F        3
Al       4.29567370       5.78691952      20.33826859  F        3
Al       7.15945616       5.78691952      20.33826859  F        3
Al      10.02323862       5.78691952      20.33826859  F        3
Al      12.88702109       5.78691952      20.33826859  F        3
Al       5.72756493       8.26702788      20.33826859  F        3
Al       8.59134739       8.26702788      20.33826859  F        3
Al      11.45512986       8.26702788      20.33826859  F        3
Al      14.31891232       8.26702788      20.33826859  F        3
Al      -0.00000000       1.65340558      22.67653718  T        2
Al       2.86378246       1.65340558      22.67653718  T        2
Al       5.72756493       1.65340558      22.67653718  T        2
Al       8.59134739       1.65340558      22.67653718  T        2
Al       1.43189123       4.13351394      22.67653718  T        2
Al       4.29567370       4.13351394      22.67653718  T        2
Al       7.15945616       4.13351394      22.67653718  T        2
Al      10.02323862       4.13351394      22.67653718  T        2
Al       2.86378246       6.61362231      22.67653718  T        2
Al       5.72756493       6.61362231      22.67653718  T        2
Al       8.59134739       6.61362231      22.67653718  T        2
Al      11.45512986       6.61362231      22.67653718  T        2
Al       4.29567370       9.09373067      22.67653718  T        2
Al       7.15945616       9.09373067      22.67653718  T        2
Al      10.02323862       9.09373067      22.67653718  T        2
Al      12.88702109       9.09373067      22.67653718  T        2
Al       0.00000000       0.00000000      25.01480577  T        1
Al       2.86378246       0.00000000      25.01480577  T        1
Al       5.72756493       0.00000000      25.01480577  T        1
Al       8.59134739       0.00000000      25.01480577  T        1
Al       1.43189123       2.48010836      25.01480577  T        1
Al       4.29567370       2.48010836      25.01480577  T        1
Al       7.15945616       2.48010836      25.01480577  T        1
Al      10.02323862       2.48010836      25.01480577  T        1
Al       2.86378246       4.96021673      25.01480577  T        1
Al       5.72756493       4.96021673      25.01480577  T        1
Al       8.59134739       4.96021673      25.01480577  T        1
Al      11.45512986       4.96021673      25.01480577  T        1
Al       4.29567370       7.44032509      25.01480577  T        1
Al       7.15945616       7.44032509      25.01480577  T        1
Al      10.02323862       7.44032509      25.01480577  T        1
Al      12.88702109       7.44032509      25.01480577  T        1
O        0.71594562       1.24005418      27.41480577  T        0
H        0.11963662       2.00329318      27.41480577  T        0
H        0.11963662       0.47681518      27.41480577  T        0
67
Lattice="11.45512985522207 0.0 0.0 5.727564927611035 9.92043345827187 0.0 0.0 0.0 43.01480577065395" Properties=species:S:1:pos:R:3:move_mask:L:1:tags:I:1 surface_element=Al miller="_JSON [1, 1, 1]" slab_size="_JSON [4, 4, 4]" vacuum_angstrom=18.0 fixed_layers=2 fixed_atom_indices="_JSON [0, 1, 2, 3, 4, 5, 6, 7, 8, 9, 10, 11, 12, 13, 14, 15, 16, 17, 18, 19, 20, 21, 22, 23, 24, 25, 26, 27, 28, 29, 30, 31]" system_name=al111_h2o adsorbate=H2O site=bridge orientation=flat height_angstrom=2.8 structure_id=e8ad5c01a8a5bfe0 pbc="T T T"
Al       0.00000000       0.00000000      18.00000000  F        4
Al       2.86378246       0.00000000      18.00000000  F        4
Al       5.72756493       0.00000000      18.00000000  F        4
Al       8.59134739       0.00000000      18.00000000  F        4
Al       1.43189123       2.48010836      18.00000000  F        4
Al       4.29567370       2.48010836      18.00000000  F        4
Al       7.15945616       2.48010836      18.00000000  F        4
Al      10.02323862       2.48010836      18.00000000  F        4
Al       2.86378246       4.96021673      18.00000000  F        4
Al       5.72756493       4.96021673      18.00000000  F        4
Al       8.59134739       4.96021673      18.00000000  F        4
Al      11.45512986       4.96021673      18.00000000  F        4
Al       4.29567370       7.44032509      18.00000000  F        4
Al       7.15945616       7.44032509      18.00000000  F        4
Al      10.02323862       7.44032509      18.00000000  F        4
Al      12.88702109       7.44032509      18.00000000  F        4
Al       1.43189123       0.82670279      20.33826859  F        3
Al       4.29567370       0.82670279      20.33826859  F        3
Al       7.15945616       0.82670279      20.33826859  F        3
Al      10.02323862       0.82670279      20.33826859  F        3
Al       2.86378246       3.30681115      20.33826859  F        3
Al       5.72756493       3.30681115      20.33826859  F        3
Al       8.59134739       3.30681115      20.33826859  F        3
Al      11.45512986       3.30681115      20.33826859  F        3
Al       4.29567370       5.78691952      20.33826859  F        3
Al       7.15945616       5.78691952      20.33826859  F        3
Al      10.02323862       5.78691952      20.33826859  F        3
Al      12.88702109       5.78691952      20.33826859  F        3
Al       5.72756493       8.26702788      20.33826859  F        3
Al       8.59134739       8.26702788      20.33826859  F        3
Al      11.45512986       8.26702788      20.33826859  F        3
Al      14.31891232       8.26702788      20.33826859  F        3
Al      -0.00000000       1.65340558      22.67653718  T        2
Al       2.86378246       1.65340558      22.67653718  T        2
Al       5.72756493       1.65340558      22.67653718  T        2
Al       8.59134739       1.65340558      22.67653718  T        2
Al       1.43189123       4.13351394      22.67653718  T        2
Al       4.29567370       4.13351394      22.67653718  T        2
Al       7.15945616       4.13351394      22.67653718  T        2
Al      10.02323862       4.13351394      22.67653718  T        2
Al       2.86378246       6.61362231      22.67653718  T        2
Al       5.72756493       6.61362231      22.67653718  T        2
Al       8.59134739       6.61362231      22.67653718  T        2
Al      11.45512986       6.61362231      22.67653718  T        2
Al       4.29567370       9.09373067      22.67653718  T        2
Al       7.15945616       9.09373067      22.67653718  T        2
Al      10.02323862       9.09373067      22.67653718  T        2
Al      12.88702109       9.09373067      22.67653718  T        2
Al       0.00000000       0.00000000      25.01480577  T        1
Al       2.86378246       0.00000000      25.01480577  T        1
Al       5.72756493       0.00000000      25.01480577  T        1
Al       8.59134739       0.00000000      25.01480577  T        1
Al       1.43189123       2.48010836      25.01480577  T        1
Al       4.29567370       2.48010836      25.01480577  T        1
Al       7.15945616       2.48010836      25.01480577  T        1
Al      10.02323862       2.48010836      25.01480577  T        1
Al       2.86378246       4.96021673      25.01480577  T        1
Al       5.72756493       4.96021673      25.01480577  T        1
Al       8.59134739       4.96021673      25.01480577  T        1
Al      11.45512986       4.96021673      25.01480577  T        1
Al       4.29567370       7.44032509      25.01480577  T        1
Al       7.15945616       7.44032509      25.01480577  T        1
Al      10.02323862       7.44032509      25.01480577  T        1
Al      12.88702109       7.44032509      25.01480577  T        1
O        0.71594562       1.24005418      27.81480577  T        0
H        0.11963662       2.00329318      27.81480577  T        0
H        0.11963662       0.47681518      27.81480577  T        0
67
Lattice="11.45512985522207 0.0 0.0 5.727564927611035 9.92043345827187 0.0 0.0 0.0 43.01480577065395" Properties=species:S:1:pos:R:3:move_mask:L:1:tags:I:1 surface_element=Al miller="_JSON [1, 1, 1]" slab_size="_JSON [4, 4, 4]" vacuum_angstrom=18.0 fixed_layers=2 fixed_atom_indices="_JSON [0, 1, 2, 3, 4, 5, 6, 7, 8, 9, 10, 11, 12, 13, 14, 15, 16, 17, 18, 19, 20, 21, 22, 23, 24, 25, 26, 27, 28, 29, 30, 31]" system_name=al111_h2o adsorbate=H2O site=bridge orientation=flat height_angstrom=3.2 structure_id=887589c763e083e6 pbc="T T T"
Al       0.00000000       0.00000000      18.00000000  F        4
Al       2.86378246       0.00000000      18.00000000  F        4
Al       5.72756493       0.00000000      18.00000000  F        4
Al       8.59134739       0.00000000      18.00000000  F        4
Al       1.43189123       2.48010836      18.00000000  F        4
Al       4.29567370       2.48010836      18.00000000  F        4
Al       7.15945616       2.48010836      18.00000000  F        4
Al      10.02323862       2.48010836      18.00000000  F        4
Al       2.86378246       4.96021673      18.00000000  F        4
Al       5.72756493       4.96021673      18.00000000  F        4
Al       8.59134739       4.96021673      18.00000000  F        4
Al      11.45512986       4.96021673      18.00000000  F        4
Al       4.29567370       7.44032509      18.00000000  F        4
Al       7.15945616       7.44032509      18.00000000  F        4
Al      10.02323862       7.44032509      18.00000000  F        4
Al      12.88702109       7.44032509      18.00000000  F        4
Al       1.43189123       0.82670279      20.33826859  F        3
Al       4.29567370       0.82670279      20.33826859  F        3
Al       7.15945616       0.82670279      20.33826859  F        3
Al      10.02323862       0.82670279      20.33826859  F        3
Al       2.86378246       3.30681115      20.33826859  F        3
Al       5.72756493       3.30681115      20.33826859  F        3
Al       8.59134739       3.30681115      20.33826859  F        3
Al      11.45512986       3.30681115      20.33826859  F        3
Al       4.29567370       5.78691952      20.33826859  F        3
Al       7.15945616       5.78691952      20.33826859  F        3
Al      10.02323862       5.78691952      20.33826859  F        3
Al      12.88702109       5.78691952      20.33826859  F        3
Al       5.72756493       8.26702788      20.33826859  F        3
Al       8.59134739       8.26702788      20.33826859  F        3
Al      11.45512986       8.26702788      20.33826859  F        3
Al      14.31891232       8.26702788      20.33826859  F        3
Al      -0.00000000       1.65340558      22.67653718  T        2
Al       2.86378246       1.65340558      22.67653718  T        2
Al       5.72756493       1.65340558      22.67653718  T        2
Al       8.59134739       1.65340558      22.67653718  T        2
Al       1.43189123       4.13351394      22.67653718  T        2
Al       4.29567370       4.13351394      22.67653718  T        2
Al       7.15945616       4.13351394      22.67653718  T        2
Al      10.02323862       4.13351394      22.67653718  T        2
Al       2.86378246       6.61362231      22.67653718  T        2
Al       5.72756493       6.61362231      22.67653718  T        2
Al       8.59134739       6.61362231      22.67653718  T        2
Al      11.45512986       6.61362231      22.67653718  T        2
Al       4.29567370       9.09373067      22.67653718  T        2
Al       7.15945616       9.09373067      22.67653718  T        2
Al      10.02323862       9.09373067      22.67653718  T        2
Al      12.88702109       9.09373067      22.67653718  T        2
Al       0.00000000       0.00000000      25.01480577  T        1
Al       2.86378246       0.00000000      25.01480577  T        1
Al       5.72756493       0.00000000      25.01480577  T        1
Al       8.59134739       0.00000000      25.01480577  T        1
Al       1.43189123       2.48010836      25.01480577  T        1
Al       4.29567370       2.48010836      25.01480577  T        1
Al       7.15945616       2.48010836      25.01480577  T        1
Al      10.02323862       2.48010836      25.01480577  T        1
Al       2.86378246       4.96021673      25.01480577  T        1
Al       5.72756493       4.96021673      25.01480577  T        1
Al       8.59134739       4.96021673      25.01480577  T        1
Al      11.45512986       4.96021673      25.01480577  T        1
Al       4.29567370       7.44032509      25.01480577  T        1
Al       7.15945616       7.44032509      25.01480577  T        1
Al      10.02323862       7.44032509      25.01480577  T        1
Al      12.88702109       7.44032509      25.01480577  T        1
O        0.71594562       1.24005418      28.21480577  T        0
H        0.11963662       2.00329318      28.21480577  T        0
H        0.11963662       0.47681518      28.21480577  T        0
67
Lattice="11.45512985522207 0.0 0.0 5.727564927611035 9.92043345827187 0.0 0.0 0.0 43.01480577065395" Properties=species:S:1:pos:R:3:move_mask:L:1:tags:I:1 surface_element=Al miller="_JSON [1, 1, 1]" slab_size="_JSON [4, 4, 4]" vacuum_angstrom=18.0 fixed_layers=2 fixed_atom_indices="_JSON [0, 1, 2, 3, 4, 5, 6, 7, 8, 9, 10, 11, 12, 13, 14, 15, 16, 17, 18, 19, 20, 21, 22, 23, 24, 25, 26, 27, 28, 29, 30, 31]" system_name=al111_h2o adsorbate=H2O site=bridge orientation=flat height_angstrom=2.0 structure_id=d0734e114d552d2b pbc="T T T"
Al       0.00000000       0.00000000      18.00000000  F        4
Al       2.86378246       0.00000000      18.00000000  F        4
Al       5.72756493       0.00000000      18.00000000  F        4
Al       8.59134739       0.00000000      18.00000000  F        4
Al       1.43189123       2.48010836      18.00000000  F        4
Al       4.29567370       2.48010836      18.00000000  F        4
Al       7.15945616       2.48010836      18.00000000  F        4
Al      10.02323862       2.48010836      18.00000000  F        4
Al       2.86378246       4.96021673      18.00000000  F        4
Al       5.72756493       4.96021673      18.00000000  F        4
Al       8.59134739       4.96021673      18.00000000  F        4
Al      11.45512986       4.96021673      18.00000000  F        4
Al       4.29567370       7.44032509      18.00000000  F        4
Al       7.15945616       7.44032509      18.00000000  F        4
Al      10.02323862       7.44032509      18.00000000  F        4
Al      12.88702109       7.44032509      18.00000000  F        4
Al       1.43189123       0.82670279      20.33826859  F        3
Al       4.29567370       0.82670279      20.33826859  F        3
Al       7.15945616       0.82670279      20.33826859  F        3
Al      10.02323862       0.82670279      20.33826859  F        3
Al       2.86378246       3.30681115      20.33826859  F        3
Al       5.72756493       3.30681115      20.33826859  F        3
Al       8.59134739       3.30681115      20.33826859  F        3
Al      11.45512986       3.30681115      20.33826859  F        3
Al       4.29567370       5.78691952      20.33826859  F        3
Al       7.15945616       5.78691952      20.33826859  F        3
Al      10.02323862       5.78691952      20.33826859  F        3
Al      12.88702109       5.78691952      20.33826859  F        3
Al       5.72756493       8.26702788      20.33826859  F        3
Al       8.59134739       8.26702788      20.33826859  F        3
Al      11.45512986       8.26702788      20.33826859  F        3
Al      14.31891232       8.26702788      20.33826859  F        3
Al      -0.00000000       1.65340558      22.67653718  T        2
Al       2.86378246       1.65340558      22.67653718  T        2
Al       5.72756493       1.65340558      22.67653718  T        2
Al       8.59134739       1.65340558      22.67653718  T        2
Al       1.43189123       4.13351394      22.67653718  T        2
Al       4.29567370       4.13351394      22.67653718  T        2
Al       7.15945616       4.13351394      22.67653718  T        2
Al      10.02323862       4.13351394      22.67653718  T        2
Al       2.86378246       6.61362231      22.67653718  T        2
Al       5.72756493       6.61362231      22.67653718  T        2
Al       8.59134739       6.61362231      22.67653718  T        2
Al      11.45512986       6.61362231      22.67653718  T        2
Al       4.29567370       9.09373067      22.67653718  T        2
Al       7.15945616       9.09373067      22.67653718  T        2
Al      10.02323862       9.09373067      22.67653718  T        2
Al      12.88702109       9.09373067      22.67653718  T        2
Al       0.00000000       0.00000000      25.01480577  T        1
Al       2.86378246       0.00000000      25.01480577  T        1
Al       5.72756493       0.00000000      25.01480577  T        1
Al       8.59134739       0.00000000      25.01480577  T        1
Al       1.43189123       2.48010836      25.01480577  T        1
Al       4.29567370       2.48010836      25.01480577  T        1
Al       7.15945616       2.48010836      25.01480577  T        1
Al      10.02323862       2.48010836      25.01480577  T        1
Al       2.86378246       4.96021673      25.01480577  T        1
Al       5.72756493       4.96021673      25.01480577  T        1
Al       8.59134739       4.96021673      25.01480577  T        1
Al      11.45512986       4.96021673      25.01480577  T        1
Al       4.29567370       7.44032509      25.01480577  T        1
Al       7.15945616       7.44032509      25.01480577  T        1
Al      10.02323862       7.44032509      25.01480577  T        1
Al      12.88702109       7.44032509      25.01480577  T        1
O        2.14783685       1.24005418      27.01480577  T        0
H        1.55152785       2.00329318      27.01480577  T        0
H        1.55152785       0.47681518      27.01480577  T        0
67
Lattice="11.45512985522207 0.0 0.0 5.727564927611035 9.92043345827187 0.0 0.0 0.0 43.01480577065395" Properties=species:S:1:pos:R:3:move_mask:L:1:tags:I:1 surface_element=Al miller="_JSON [1, 1, 1]" slab_size="_JSON [4, 4, 4]" vacuum_angstrom=18.0 fixed_layers=2 fixed_atom_indices="_JSON [0, 1, 2, 3, 4, 5, 6, 7, 8, 9, 10, 11, 12, 13, 14, 15, 16, 17, 18, 19, 20, 21, 22, 23, 24, 25, 26, 27, 28, 29, 30, 31]" system_name=al111_h2o adsorbate=H2O site=bridge orientation=flat height_angstrom=2.4 structure_id=ebaeea164ca472de pbc="T T T"
Al       0.00000000       0.00000000      18.00000000  F        4
Al       2.86378246       0.00000000      18.00000000  F        4
Al       5.72756493       0.00000000      18.00000000  F        4
Al       8.59134739       0.00000000      18.00000000  F        4
Al       1.43189123       2.48010836      18.00000000  F        4
Al       4.29567370       2.48010836      18.00000000  F        4
Al       7.15945616       2.48010836      18.00000000  F        4
Al      10.02323862       2.48010836      18.00000000  F        4
Al       2.86378246       4.96021673      18.00000000  F        4
Al       5.72756493       4.96021673      18.00000000  F        4
Al       8.59134739       4.96021673      18.00000000  F        4
Al      11.45512986       4.96021673      18.00000000  F        4
Al       4.29567370       7.44032509      18.00000000  F        4
Al       7.15945616       7.44032509      18.00000000  F        4
Al      10.02323862       7.44032509      18.00000000  F        4
Al      12.88702109       7.44032509      18.00000000  F        4
Al       1.43189123       0.82670279      20.33826859  F        3
Al       4.29567370       0.82670279      20.33826859  F        3
Al       7.15945616       0.82670279      20.33826859  F        3
Al      10.02323862       0.82670279      20.33826859  F        3
Al       2.86378246       3.30681115      20.33826859  F        3
Al       5.72756493       3.30681115      20.33826859  F        3
Al       8.59134739       3.30681115      20.33826859  F        3
Al      11.45512986       3.30681115      20.33826859  F        3
Al       4.29567370       5.78691952      20.33826859  F        3
Al       7.15945616       5.78691952      20.33826859  F        3
Al      10.02323862       5.78691952      20.33826859  F        3
Al      12.88702109       5.78691952      20.33826859  F        3
Al       5.72756493       8.26702788      20.33826859  F        3
Al       8.59134739       8.26702788      20.33826859  F        3
Al      11.45512986       8.26702788      20.33826859  F        3
Al      14.31891232       8.26702788      20.33826859  F        3
Al      -0.00000000       1.65340558      22.67653718  T        2
Al       2.86378246       1.65340558      22.67653718  T        2
Al       5.72756493       1.65340558      22.67653718  T        2
Al       8.59134739       1.65340558      22.67653718  T        2
Al       1.43189123       4.13351394      22.67653718  T        2
Al       4.29567370       4.13351394      22.67653718  T        2
Al       7.15945616       4.13351394      22.67653718  T        2
Al      10.02323862       4.13351394      22.67653718  T        2
Al       2.86378246       6.61362231      22.67653718  T        2
Al       5.72756493       6.61362231      22.67653718  T        2
Al       8.59134739       6.61362231      22.67653718  T        2
Al      11.45512986       6.61362231      22.67653718  T        2
Al       4.29567370       9.09373067      22.67653718  T        2
Al       7.15945616       9.09373067      22.67653718  T        2
Al      10.02323862       9.09373067      22.67653718  T        2
Al      12.88702109       9.09373067      22.67653718  T        2
Al       0.00000000       0.00000000      25.01480577  T        1
Al       2.86378246       0.00000000      25.01480577  T        1
Al       5.72756493       0.00000000      25.01480577  T        1
Al       8.59134739       0.00000000      25.01480577  T        1
Al       1.43189123       2.48010836      25.01480577  T        1
Al       4.29567370       2.48010836      25.01480577  T        1
Al       7.15945616       2.48010836      25.01480577  T        1
Al      10.02323862       2.48010836      25.01480577  T        1
Al       2.86378246       4.96021673      25.01480577  T        1
Al       5.72756493       4.96021673      25.01480577  T        1
Al       8.59134739       4.96021673      25.01480577  T        1
Al      11.45512986       4.96021673      25.01480577  T        1
Al       4.29567370       7.44032509      25.01480577  T        1
Al       7.15945616       7.44032509      25.01480577  T        1
Al      10.02323862       7.44032509      25.01480577  T        1
Al      12.88702109       7.44032509      25.01480577  T        1
O        2.14783685       1.24005418      27.41480577  T        0
H        1.55152785       2.00329318      27.41480577  T        0
H        1.55152785       0.47681518      27.41480577  T        0
67
Lattice="11.45512985522207 0.0 0.0 5.727564927611035 9.92043345827187 0.0 0.0 0.0 43.01480577065395" Properties=species:S:1:pos:R:3:move_mask:L:1:tags:I:1 surface_element=Al miller="_JSON [1, 1, 1]" slab_size="_JSON [4, 4, 4]" vacuum_angstrom=18.0 fixed_layers=2 fixed_atom_indices="_JSON [0, 1, 2, 3, 4, 5, 6, 7, 8, 9, 10, 11, 12, 13, 14, 15, 16, 17, 18, 19, 20, 21, 22, 23, 24, 25, 26, 27, 28, 29, 30, 31]" system_name=al111_h2o adsorbate=H2O site=bridge orientation=flat height_angstrom=2.8 structure_id=e475aa2eeb867af0 pbc="T T T"
Al       0.00000000       0.00000000      18.00000000  F        4
Al       2.86378246       0.00000000      18.00000000  F        4
Al       5.72756493       0.00000000      18.00000000  F        4
Al       8.59134739       0.00000000      18.00000000  F        4
Al       1.43189123       2.48010836      18.00000000  F        4
Al       4.29567370       2.48010836      18.00000000  F        4
Al       7.15945616       2.48010836      18.00000000  F        4
Al      10.02323862       2.48010836      18.00000000  F        4
Al       2.86378246       4.96021673      18.00000000  F        4
Al       5.72756493       4.96021673      18.00000000  F        4
Al       8.59134739       4.96021673      18.00000000  F        4
Al      11.45512986       4.96021673      18.00000000  F        4
Al       4.29567370       7.44032509      18.00000000  F        4
Al       7.15945616       7.44032509      18.00000000  F        4
Al      10.02323862       7.44032509      18.00000000  F        4
Al      12.88702109       7.44032509      18.00000000  F        4
Al       1.43189123       0.82670279      20.33826859  F        3
Al       4.29567370       0.82670279      20.33826859  F        3
Al       7.15945616       0.82670279      20.33826859  F        3
Al      10.02323862       0.82670279      20.33826859  F        3
Al       2.86378246       3.30681115      20.33826859  F        3
Al       5.72756493       3.30681115      20.33826859  F        3
Al       8.59134739       3.30681115      20.33826859  F        3
Al      11.45512986       3.30681115      20.33826859  F        3
Al       4.29567370       5.78691952      20.33826859  F        3
Al       7.15945616       5.78691952      20.33826859  F        3
Al      10.02323862       5.78691952      20.33826859  F        3
Al      12.88702109       5.78691952      20.33826859  F        3
Al       5.72756493       8.26702788      20.33826859  F        3
Al       8.59134739       8.26702788      20.33826859  F        3
Al      11.45512986       8.26702788      20.33826859  F        3
Al      14.31891232       8.26702788      20.33826859  F        3
Al      -0.00000000       1.65340558      22.67653718  T        2
Al       2.86378246       1.65340558      22.67653718  T        2
Al       5.72756493       1.65340558      22.67653718  T        2
Al       8.59134739       1.65340558      22.67653718  T        2
Al       1.43189123       4.13351394      22.67653718  T        2
Al       4.29567370       4.13351394      22.67653718  T        2
Al       7.15945616       4.13351394      22.67653718  T        2
Al      10.02323862       4.13351394      22.67653718  T        2
Al       2.86378246       6.61362231      22.67653718  T        2
Al       5.72756493       6.61362231      22.67653718  T        2
Al       8.59134739       6.61362231      22.67653718  T        2
Al      11.45512986       6.61362231      22.67653718  T        2
Al       4.29567370       9.09373067      22.67653718  T        2
Al       7.15945616       9.09373067      22.67653718  T        2
Al      10.02323862       9.09373067      22.67653718  T        2
Al      12.88702109       9.09373067      22.67653718  T        2
Al       0.00000000       0.00000000      25.01480577  T        1
Al       2.86378246       0.00000000      25.01480577  T        1
Al       5.72756493       0.00000000      25.01480577  T        1
Al       8.59134739       0.00000000      25.01480577  T        1
Al       1.43189123       2.48010836      25.01480577  T        1
Al       4.29567370       2.48010836      25.01480577  T        1
Al       7.15945616       2.48010836      25.01480577  T        1
Al      10.02323862       2.48010836      25.01480577  T        1
Al       2.86378246       4.96021673      25.01480577  T        1
Al       5.72756493       4.96021673      25.01480577  T        1
Al       8.59134739       4.96021673      25.01480577  T        1
Al      11.45512986       4.96021673      25.01480577  T        1
Al       4.29567370       7.44032509      25.01480577  T        1
Al       7.15945616       7.44032509      25.01480577  T        1
Al      10.02323862       7.44032509      25.01480577  T        1
Al      12.88702109       7.44032509      25.01480577  T        1
O        2.14783685       1.24005418      27.81480577  T        0
H        1.55152785       2.00329318      27.81480577  T        0
H        1.55152785       0.47681518      27.81480577  T        0
67
Lattice="11.45512985522207 0.0 0.0 5.727564927611035 9.92043345827187 0.0 0.0 0.0 43.01480577065395" Properties=species:S:1:pos:R:3:move_mask:L:1:tags:I:1 surface_element=Al miller="_JSON [1, 1, 1]" slab_size="_JSON [4, 4, 4]" vacuum_angstrom=18.0 fixed_layers=2 fixed_atom_indices="_JSON [0, 1, 2, 3, 4, 5, 6, 7, 8, 9, 10, 11, 12, 13, 14, 15, 16, 17, 18, 19, 20, 21, 22, 23, 24, 25, 26, 27, 28, 29, 30, 31]" system_name=al111_h2o adsorbate=H2O site=bridge orientation=flat height_angstrom=3.2 structure_id=1d7f11296ccc50b6 pbc="T T T"
Al       0.00000000       0.00000000      18.00000000  F        4
Al       2.86378246       0.00000000      18.00000000  F        4
Al       5.72756493       0.00000000      18.00000000  F        4
Al       8.59134739       0.00000000      18.00000000  F        4
Al       1.43189123       2.48010836      18.00000000  F        4
Al       4.29567370       2.48010836      18.00000000  F        4
Al       7.15945616       2.48010836      18.00000000  F        4
Al      10.02323862       2.48010836      18.00000000  F        4
Al       2.86378246       4.96021673      18.00000000  F        4
Al       5.72756493       4.96021673      18.00000000  F        4
Al       8.59134739       4.96021673      18.00000000  F        4
Al      11.45512986       4.96021673      18.00000000  F        4
Al       4.29567370       7.44032509      18.00000000  F        4
Al       7.15945616       7.44032509      18.00000000  F        4
Al      10.02323862       7.44032509      18.00000000  F        4
Al      12.88702109       7.44032509      18.00000000  F        4
Al       1.43189123       0.82670279      20.33826859  F        3
Al       4.29567370       0.82670279      20.33826859  F        3
Al       7.15945616       0.82670279      20.33826859  F        3
Al      10.02323862       0.82670279      20.33826859  F        3
Al       2.86378246       3.30681115      20.33826859  F        3
Al       5.72756493       3.30681115      20.33826859  F        3
Al       8.59134739       3.30681115      20.33826859  F        3
Al      11.45512986       3.30681115      20.33826859  F        3
Al       4.29567370       5.78691952      20.33826859  F        3
Al       7.15945616       5.78691952      20.33826859  F        3
Al      10.02323862       5.78691952      20.33826859  F        3
Al      12.88702109       5.78691952      20.33826859  F        3
Al       5.72756493       8.26702788      20.33826859  F        3
Al       8.59134739       8.26702788      20.33826859  F        3
Al      11.45512986       8.26702788      20.33826859  F        3
Al      14.31891232       8.26702788      20.33826859  F        3
Al      -0.00000000       1.65340558      22.67653718  T        2
Al       2.86378246       1.65340558      22.67653718  T        2
Al       5.72756493       1.65340558      22.67653718  T        2
Al       8.59134739       1.65340558      22.67653718  T        2
Al       1.43189123       4.13351394      22.67653718  T        2
Al       4.29567370       4.13351394      22.67653718  T        2
Al       7.15945616       4.13351394      22.67653718  T        2
Al      10.02323862       4.13351394      22.67653718  T        2
Al       2.86378246       6.61362231      22.67653718  T        2
Al       5.72756493       6.61362231      22.67653718  T        2
Al       8.59134739       6.61362231      22.67653718  T        2
Al      11.45512986       6.61362231      22.67653718  T        2
Al       4.29567370       9.09373067      22.67653718  T        2
Al       7.15945616       9.09373067      22.67653718  T        2
Al      10.02323862       9.09373067      22.67653718  T        2
Al      12.88702109       9.09373067      22.67653718  T        2
Al       0.00000000       0.00000000      25.01480577  T        1
Al       2.86378246       0.00000000      25.01480577  T        1
Al       5.72756493       0.00000000      25.01480577  T        1
Al       8.59134739       0.00000000      25.01480577  T        1
Al       1.43189123       2.48010836      25.01480577  T        1
Al       4.29567370       2.48010836      25.01480577  T        1
Al       7.15945616       2.48010836      25.01480577  T        1
Al      10.02323862       2.48010836      25.01480577  T        1
Al       2.86378246       4.96021673      25.01480577  T        1
Al       5.72756493       4.96021673      25.01480577  T        1
Al       8.59134739       4.96021673      25.01480577  T        1
Al      11.45512986       4.96021673      25.01480577  T        1
Al       4.29567370       7.44032509      25.01480577  T        1
Al       7.15945616       7.44032509      25.01480577  T        1
Al      10.02323862       7.44032509      25.01480577  T        1
Al      12.88702109       7.44032509      25.01480577  T        1
O        2.14783685       1.24005418      28.21480577  T        0
H        1.55152785       2.00329318      28.21480577  T        0
H        1.55152785       0.47681518      28.21480577  T        0
67
Lattice="11.45512985522207 0.0 0.0 5.727564927611035 9.92043345827187 0.0 0.0 0.0 43.01480577065395" Properties=species:S:1:pos:R:3:move_mask:L:1:tags:I:1 surface_element=Al miller="_JSON [1, 1, 1]" slab_size="_JSON [4, 4, 4]" vacuum_angstrom=18.0 fixed_layers=2 fixed_atom_indices="_JSON [0, 1, 2, 3, 4, 5, 6, 7, 8, 9, 10, 11, 12, 13, 14, 15, 16, 17, 18, 19, 20, 21, 22, 23, 24, 25, 26, 27, 28, 29, 30, 31]" system_name=al111_h2o adsorbate=H2O site=bridge orientation=dipole_down height_angstrom=2.0 structure_id=1e23029721bfe750 pbc="T T T"
Al       0.00000000       0.00000000      18.00000000  F        4
Al       2.86378246       0.00000000      18.00000000  F        4
Al       5.72756493       0.00000000      18.00000000  F        4
Al       8.59134739       0.00000000      18.00000000  F        4
Al       1.43189123       2.48010836      18.00000000  F        4
Al       4.29567370       2.48010836      18.00000000  F        4
Al       7.15945616       2.48010836      18.00000000  F        4
Al      10.02323862       2.48010836      18.00000000  F        4
Al       2.86378246       4.96021673      18.00000000  F        4
Al       5.72756493       4.96021673      18.00000000  F        4
Al       8.59134739       4.96021673      18.00000000  F        4
Al      11.45512986       4.96021673      18.00000000  F        4
Al       4.29567370       7.44032509      18.00000000  F        4
Al       7.15945616       7.44032509      18.00000000  F        4
Al      10.02323862       7.44032509      18.00000000  F        4
Al      12.88702109       7.44032509      18.00000000  F        4
Al       1.43189123       0.82670279      20.33826859  F        3
Al       4.29567370       0.82670279      20.33826859  F        3
Al       7.15945616       0.82670279      20.33826859  F        3
Al      10.02323862       0.82670279      20.33826859  F        3
Al       2.86378246       3.30681115      20.33826859  F        3
Al       5.72756493       3.30681115      20.33826859  F        3
Al       8.59134739       3.30681115      20.33826859  F        3
Al      11.45512986       3.30681115      20.33826859  F        3
Al       4.29567370       5.78691952      20.33826859  F        3
Al       7.15945616       5.78691952      20.33826859  F        3
Al      10.02323862       5.78691952      20.33826859  F        3
Al      12.88702109       5.78691952      20.33826859  F        3
Al       5.72756493       8.26702788      20.33826859  F        3
Al       8.59134739       8.26702788      20.33826859  F        3
Al      11.45512986       8.26702788      20.33826859  F        3
Al      14.31891232       8.26702788      20.33826859  F        3
Al      -0.00000000       1.65340558      22.67653718  T        2
Al       2.86378246       1.65340558      22.67653718  T        2
Al       5.72756493       1.65340558      22.67653718  T        2
Al       8.59134739       1.65340558      22.67653718  T        2
Al       1.43189123       4.13351394      22.67653718  T        2
Al       4.29567370       4.13351394      22.67653718  T        2
Al       7.15945616       4.13351394      22.67653718  T        2
Al      10.02323862       4.13351394      22.67653718  T        2
Al       2.86378246       6.61362231      22.67653718  T        2
Al       5.72756493       6.61362231      22.67653718  T        2
Al       8.59134739       6.61362231      22.67653718  T        2
Al      11.45512986       6.61362231      22.67653718  T        2
Al       4.29567370       9.09373067      22.67653718  T        2
Al       7.15945616       9.09373067      22.67653718  T        2
Al      10.02323862       9.09373067      22.67653718  T        2
Al      12.88702109       9.09373067      22.67653718  T        2
Al       0.00000000       0.00000000      25.01480577  T        1
Al       2.86378246       0.00000000      25.01480577  T        1
Al       5.72756493       0.00000000      25.01480577  T        1
Al       8.59134739       0.00000000      25.01480577  T        1
Al       1.43189123       2.48010836      25.01480577  T        1
Al       4.29567370       2.48010836      25.01480577  T        1
Al       7.15945616       2.48010836      25.01480577  T        1
Al      10.02323862       2.48010836      25.01480577  T        1
Al       2.86378246       4.96021673      25.01480577  T        1
Al       5.72756493       4.96021673      25.01480577  T        1
Al       8.59134739       4.96021673      25.01480577  T        1
Al      11.45512986       4.96021673      25.01480577  T        1
Al       4.29567370       7.44032509      25.01480577  T        1
Al       7.15945616       7.44032509      25.01480577  T        1
Al      10.02323862       7.44032509      25.01480577  T        1
Al      12.88702109       7.44032509      25.01480577  T        1
O        5.72756493       2.48010836      27.01480577  T        0
H        5.72756493       1.71686936      27.61111477  T        0
H        5.72756493       3.24334736      27.61111477  T        0
67
Lattice="11.45512985522207 0.0 0.0 5.727564927611035 9.92043345827187 0.0 0.0 0.0 43.01480577065395" Properties=species:S:1:pos:R:3:move_mask:L:1:tags:I:1 surface_element=Al miller="_JSON [1, 1, 1]" slab_size="_JSON [4, 4, 4]" vacuum_angstrom=18.0 fixed_layers=2 fixed_atom_indices="_JSON [0, 1, 2, 3, 4, 5, 6, 7, 8, 9, 10, 11, 12, 13, 14, 15, 16, 17, 18, 19, 20, 21, 22, 23, 24, 25, 26, 27, 28, 29, 30, 31]" system_name=al111_h2o adsorbate=H2O site=bridge orientation=dipole_down height_angstrom=2.4 structure_id=2b746d95085c2071 pbc="T T T"
Al       0.00000000       0.00000000      18.00000000  F        4
Al       2.86378246       0.00000000      18.00000000  F        4
Al       5.72756493       0.00000000      18.00000000  F        4
Al       8.59134739       0.00000000      18.00000000  F        4
Al       1.43189123       2.48010836      18.00000000  F        4
Al       4.29567370       2.48010836      18.00000000  F        4
Al       7.15945616       2.48010836      18.00000000  F        4
Al      10.02323862       2.48010836      18.00000000  F        4
Al       2.86378246       4.96021673      18.00000000  F        4
Al       5.72756493       4.96021673      18.00000000  F        4
Al       8.59134739       4.96021673      18.00000000  F        4
Al      11.45512986       4.96021673      18.00000000  F        4
Al       4.29567370       7.44032509      18.00000000  F        4
Al       7.15945616       7.44032509      18.00000000  F        4
Al      10.02323862       7.44032509      18.00000000  F        4
Al      12.88702109       7.44032509      18.00000000  F        4
Al       1.43189123       0.82670279      20.33826859  F        3
Al       4.29567370       0.82670279      20.33826859  F        3
Al       7.15945616       0.82670279      20.33826859  F        3
Al      10.02323862       0.82670279      20.33826859  F        3
Al       2.86378246       3.30681115      20.33826859  F        3
Al       5.72756493       3.30681115      20.33826859  F        3
Al       8.59134739       3.30681115      20.33826859  F        3
Al      11.45512986       3.30681115      20.33826859  F        3
Al       4.29567370       5.78691952      20.33826859  F        3
Al       7.15945616       5.78691952      20.33826859  F        3
Al      10.02323862       5.78691952      20.33826859  F        3
Al      12.88702109       5.78691952      20.33826859  F        3
Al       5.72756493       8.26702788      20.33826859  F        3
Al       8.59134739       8.26702788      20.33826859  F        3
Al      11.45512986       8.26702788      20.33826859  F        3
Al      14.31891232       8.26702788      20.33826859  F        3
Al      -0.00000000       1.65340558      22.67653718  T        2
Al       2.86378246       1.65340558      22.67653718  T        2
Al       5.72756493       1.65340558      22.67653718  T        2
Al       8.59134739       1.65340558      22.67653718  T        2
Al       1.43189123       4.13351394      22.67653718  T        2
Al       4.29567370       4.13351394      22.67653718  T        2
Al       7.15945616       4.13351394      22.67653718  T        2
Al      10.02323862       4.13351394      22.67653718  T        2
Al       2.86378246       6.61362231      22.67653718  T        2
Al       5.72756493       6.61362231      22.67653718  T        2
Al       8.59134739       6.61362231      22.67653718  T        2
Al      11.45512986       6.61362231      22.67653718  T        2
Al       4.29567370       9.09373067      22.67653718  T        2
Al       7.15945616       9.09373067      22.67653718  T        2
Al      10.02323862       9.09373067      22.67653718  T        2
Al      12.88702109       9.09373067      22.67653718  T        2
Al       0.00000000       0.00000000      25.01480577  T        1
Al       2.86378246       0.00000000      25.01480577  T        1
Al       5.72756493       0.00000000      25.01480577  T        1
Al       8.59134739       0.00000000      25.01480577  T        1
Al       1.43189123       2.48010836      25.01480577  T        1
Al       4.29567370       2.48010836      25.01480577  T        1
Al       7.15945616       2.48010836      25.01480577  T        1
Al      10.02323862       2.48010836      25.01480577  T        1
Al       2.86378246       4.96021673      25.01480577  T        1
Al       5.72756493       4.96021673      25.01480577  T        1
Al       8.59134739       4.96021673      25.01480577  T        1
Al      11.45512986       4.96021673      25.01480577  T        1
Al       4.29567370       7.44032509      25.01480577  T        1
Al       7.15945616       7.44032509      25.01480577  T        1
Al      10.02323862       7.44032509      25.01480577  T        1
Al      12.88702109       7.44032509      25.01480577  T        1
O        5.72756493       2.48010836      27.41480577  T        0
H        5.72756493       1.71686936      28.01111477  T        0
H        5.72756493       3.24334736      28.01111477  T        0
67
Lattice="11.45512985522207 0.0 0.0 5.727564927611035 9.92043345827187 0.0 0.0 0.0 43.01480577065395" Properties=species:S:1:pos:R:3:move_mask:L:1:tags:I:1 surface_element=Al miller="_JSON [1, 1, 1]" slab_size="_JSON [4, 4, 4]" vacuum_angstrom=18.0 fixed_layers=2 fixed_atom_indices="_JSON [0, 1, 2, 3, 4, 5, 6, 7, 8, 9, 10, 11, 12, 13, 14, 15, 16, 17, 18, 19, 20, 21, 22, 23, 24, 25, 26, 27, 28, 29, 30, 31]" system_name=al111_h2o adsorbate=H2O site=bridge orientation=dipole_down height_angstrom=2.8 structure_id=12efe771fd9e4c3f pbc="T T T"
Al       0.00000000       0.00000000      18.00000000  F        4
Al       2.86378246       0.00000000      18.00000000  F        4
Al       5.72756493       0.00000000      18.00000000  F        4
Al       8.59134739       0.00000000      18.00000000  F        4
Al       1.43189123       2.48010836      18.00000000  F        4
Al       4.29567370       2.48010836      18.00000000  F        4
Al       7.15945616       2.48010836      18.00000000  F        4
Al      10.02323862       2.48010836      18.00000000  F        4
Al       2.86378246       4.96021673      18.00000000  F        4
Al       5.72756493       4.96021673      18.00000000  F        4
Al       8.59134739       4.96021673      18.00000000  F        4
Al      11.45512986       4.96021673      18.00000000  F        4
Al       4.29567370       7.44032509      18.00000000  F        4
Al       7.15945616       7.44032509      18.00000000  F        4
Al      10.02323862       7.44032509      18.00000000  F        4
Al      12.88702109       7.44032509      18.00000000  F        4
Al       1.43189123       0.82670279      20.33826859  F        3
Al       4.29567370       0.82670279      20.33826859  F        3
Al       7.15945616       0.82670279      20.33826859  F        3
Al      10.02323862       0.82670279      20.33826859  F        3
Al       2.86378246       3.30681115      20.33826859  F        3
Al       5.72756493       3.30681115      20.33826859  F        3
Al       8.59134739       3.30681115      20.33826859  F        3
Al      11.45512986       3.30681115      20.33826859  F        3
Al       4.29567370       5.78691952      20.33826859  F        3
Al       7.15945616       5.78691952      20.33826859  F        3
Al      10.02323862       5.78691952      20.33826859  F        3
Al      12.88702109       5.78691952      20.33826859  F        3
Al       5.72756493       8.26702788      20.33826859  F        3
Al       8.59134739       8.26702788      20.33826859  F        3
Al      11.45512986       8.26702788      20.33826859  F        3
Al      14.31891232       8.26702788      20.33826859  F        3
Al      -0.00000000       1.65340558      22.67653718  T        2
Al       2.86378246       1.65340558      22.67653718  T        2
Al       5.72756493       1.65340558      22.67653718  T        2
Al       8.59134739       1.65340558      22.67653718  T        2
Al       1.43189123       4.13351394      22.67653718  T        2
Al       4.29567370       4.13351394      22.67653718  T        2
Al       7.15945616       4.13351394      22.67653718  T        2
Al      10.02323862       4.13351394      22.67653718  T        2
Al       2.86378246       6.61362231      22.67653718  T        2
Al       5.72756493       6.61362231      22.67653718  T        2
Al       8.59134739       6.61362231      22.67653718  T        2
Al      11.45512986       6.61362231      22.67653718  T        2
Al       4.29567370       9.09373067      22.67653718  T        2
Al       7.15945616       9.09373067      22.67653718  T        2
Al      10.02323862       9.09373067      22.67653718  T        2
Al      12.88702109       9.09373067      22.67653718  T        2
Al       0.00000000       0.00000000      25.01480577  T        1
Al       2.86378246       0.00000000      25.01480577  T        1
Al       5.72756493       0.00000000      25.01480577  T        1
Al       8.59134739       0.00000000      25.01480577  T        1
Al       1.43189123       2.48010836      25.01480577  T        1
Al       4.29567370       2.48010836      25.01480577  T        1
Al       7.15945616       2.48010836      25.01480577  T        1
Al      10.02323862       2.48010836      25.01480577  T        1
Al       2.86378246       4.96021673      25.01480577  T        1
Al       5.72756493       4.96021673      25.01480577  T        1
Al       8.59134739       4.96021673      25.01480577  T        1
Al      11.45512986       4.96021673      25.01480577  T        1
Al       4.29567370       7.44032509      25.01480577  T        1
Al       7.15945616       7.44032509      25.01480577  T        1
Al      10.02323862       7.44032509      25.01480577  T        1
Al      12.88702109       7.44032509      25.01480577  T        1
O        5.72756493       2.48010836      27.81480577  T        0
H        5.72756493       1.71686936      28.41111477  T        0
H        5.72756493       3.24334736      28.41111477  T        0
67
Lattice="11.45512985522207 0.0 0.0 5.727564927611035 9.92043345827187 0.0 0.0 0.0 43.01480577065395" Properties=species:S:1:pos:R:3:move_mask:L:1:tags:I:1 surface_element=Al miller="_JSON [1, 1, 1]" slab_size="_JSON [4, 4, 4]" vacuum_angstrom=18.0 fixed_layers=2 fixed_atom_indices="_JSON [0, 1, 2, 3, 4, 5, 6, 7, 8, 9, 10, 11, 12, 13, 14, 15, 16, 17, 18, 19, 20, 21, 22, 23, 24, 25, 26, 27, 28, 29, 30, 31]" system_name=al111_h2o adsorbate=H2O site=bridge orientation=dipole_down height_angstrom=3.2 structure_id=2daa5985314d8232 pbc="T T T"
Al       0.00000000       0.00000000      18.00000000  F        4
Al       2.86378246       0.00000000      18.00000000  F        4
Al       5.72756493       0.00000000      18.00000000  F        4
Al       8.59134739       0.00000000      18.00000000  F        4
Al       1.43189123       2.48010836      18.00000000  F        4
Al       4.29567370       2.48010836      18.00000000  F        4
Al       7.15945616       2.48010836      18.00000000  F        4
Al      10.02323862       2.48010836      18.00000000  F        4
Al       2.86378246       4.96021673      18.00000000  F        4
Al       5.72756493       4.96021673      18.00000000  F        4
Al       8.59134739       4.96021673      18.00000000  F        4
Al      11.45512986       4.96021673      18.00000000  F        4
Al       4.29567370       7.44032509      18.00000000  F        4
Al       7.15945616       7.44032509      18.00000000  F        4
Al      10.02323862       7.44032509      18.00000000  F        4
Al      12.88702109       7.44032509      18.00000000  F        4
Al       1.43189123       0.82670279      20.33826859  F        3
Al       4.29567370       0.82670279      20.33826859  F        3
Al       7.15945616       0.82670279      20.33826859  F        3
Al      10.02323862       0.82670279      20.33826859  F        3
Al       2.86378246       3.30681115      20.33826859  F        3
Al       5.72756493       3.30681115      20.33826859  F        3
Al       8.59134739       3.30681115      20.33826859  F        3
Al      11.45512986       3.30681115      20.33826859  F        3
Al       4.29567370       5.78691952      20.33826859  F        3
Al       7.15945616       5.78691952      20.33826859  F        3
Al      10.02323862       5.78691952      20.33826859  F        3
Al      12.88702109       5.78691952      20.33826859  F        3
Al       5.72756493       8.26702788      20.33826859  F        3
Al       8.59134739       8.26702788      20.33826859  F        3
Al      11.45512986       8.26702788      20.33826859  F        3
Al      14.31891232       8.26702788      20.33826859  F        3
Al      -0.00000000       1.65340558      22.67653718  T        2
Al       2.86378246       1.65340558      22.67653718  T        2
Al       5.72756493       1.65340558      22.67653718  T        2
Al       8.59134739       1.65340558      22.67653718  T        2
Al       1.43189123       4.13351394      22.67653718  T        2
Al       4.29567370       4.13351394      22.67653718  T        2
Al       7.15945616       4.13351394      22.67653718  T        2
Al      10.02323862       4.13351394      22.67653718  T        2
Al       2.86378246       6.61362231      22.67653718  T        2
Al       5.72756493       6.61362231      22.67653718  T        2
Al       8.59134739       6.61362231      22.67653718  T        2
Al      11.45512986       6.61362231      22.67653718  T        2
Al       4.29567370       9.09373067      22.67653718  T        2
Al       7.15945616       9.09373067      22.67653718  T        2
Al      10.02323862       9.09373067      22.67653718  T        2
Al      12.88702109       9.09373067      22.67653718  T        2
Al       0.00000000       0.00000000      25.01480577  T        1
Al       2.86378246       0.00000000      25.01480577  T        1
Al       5.72756493       0.00000000      25.01480577  T        1
Al       8.59134739       0.00000000      25.01480577  T        1
Al       1.43189123       2.48010836      25.01480577  T        1
Al       4.29567370       2.48010836      25.01480577  T        1
Al       7.15945616       2.48010836      25.01480577  T        1
Al      10.02323862       2.48010836      25.01480577  T        1
Al       2.86378246       4.96021673      25.01480577  T        1
Al       5.72756493       4.96021673      25.01480577  T        1
Al       8.59134739       4.96021673      25.01480577  T        1
Al      11.45512986       4.96021673      25.01480577  T        1
Al       4.29567370       7.44032509      25.01480577  T        1
Al       7.15945616       7.44032509      25.01480577  T        1
Al      10.02323862       7.44032509      25.01480577  T        1
Al      12.88702109       7.44032509      25.01480577  T        1
O        5.72756493       2.48010836      28.21480577  T        0
H        5.72756493       1.71686936      28.81111477  T        0
H        5.72756493       3.24334736      28.81111477  T        0
67
Lattice="11.45512985522207 0.0 0.0 5.727564927611035 9.92043345827187 0.0 0.0 0.0 43.01480577065395" Properties=species:S:1:pos:R:3:move_mask:L:1:tags:I:1 surface_element=Al miller="_JSON [1, 1, 1]" slab_size="_JSON [4, 4, 4]" vacuum_angstrom=18.0 fixed_layers=2 fixed_atom_indices="_JSON [0, 1, 2, 3, 4, 5, 6, 7, 8, 9, 10, 11, 12, 13, 14, 15, 16, 17, 18, 19, 20, 21, 22, 23, 24, 25, 26, 27, 28, 29, 30, 31]" system_name=al111_h2o adsorbate=H2O site=bridge orientation=dipole_up height_angstrom=2.0 structure_id=ead368b8ffb7ad3b pbc="T T T"
Al       0.00000000       0.00000000      18.00000000  F        4
Al       2.86378246       0.00000000      18.00000000  F        4
Al       5.72756493       0.00000000      18.00000000  F        4
Al       8.59134739       0.00000000      18.00000000  F        4
Al       1.43189123       2.48010836      18.00000000  F        4
Al       4.29567370       2.48010836      18.00000000  F        4
Al       7.15945616       2.48010836      18.00000000  F        4
Al      10.02323862       2.48010836      18.00000000  F        4
Al       2.86378246       4.96021673      18.00000000  F        4
Al       5.72756493       4.96021673      18.00000000  F        4
Al       8.59134739       4.96021673      18.00000000  F        4
Al      11.45512986       4.96021673      18.00000000  F        4
Al       4.29567370       7.44032509      18.00000000  F        4
Al       7.15945616       7.44032509      18.00000000  F        4
Al      10.02323862       7.44032509      18.00000000  F        4
Al      12.88702109       7.44032509      18.00000000  F        4
Al       1.43189123       0.82670279      20.33826859  F        3
Al       4.29567370       0.82670279      20.33826859  F        3
Al       7.15945616       0.82670279      20.33826859  F        3
Al      10.02323862       0.82670279      20.33826859  F        3
Al       2.86378246       3.30681115      20.33826859  F        3
Al       5.72756493       3.30681115      20.33826859  F        3
Al       8.59134739       3.30681115      20.33826859  F        3
Al      11.45512986       3.30681115      20.33826859  F        3
Al       4.29567370       5.78691952      20.33826859  F        3
Al       7.15945616       5.78691952      20.33826859  F        3
Al      10.02323862       5.78691952      20.33826859  F        3
Al      12.88702109       5.78691952      20.33826859  F        3
Al       5.72756493       8.26702788      20.33826859  F        3
Al       8.59134739       8.26702788      20.33826859  F        3
Al      11.45512986       8.26702788      20.33826859  F        3
Al      14.31891232       8.26702788      20.33826859  F        3
Al      -0.00000000       1.65340558      22.67653718  T        2
Al       2.86378246       1.65340558      22.67653718  T        2
Al       5.72756493       1.65340558      22.67653718  T        2
Al       8.59134739       1.65340558      22.67653718  T        2
Al       1.43189123       4.13351394      22.67653718  T        2
Al       4.29567370       4.13351394      22.67653718  T        2
Al       7.15945616       4.13351394      22.67653718  T        2
Al      10.02323862       4.13351394      22.67653718  T        2
Al       2.86378246       6.61362231      22.67653718  T        2
Al       5.72756493       6.61362231      22.67653718  T        2
Al       8.59134739       6.61362231      22.67653718  T        2
Al      11.45512986       6.61362231      22.67653718  T        2
Al       4.29567370       9.09373067      22.67653718  T        2
Al       7.15945616       9.09373067      22.67653718  T        2
Al      10.02323862       9.09373067      22.67653718  T        2
Al      12.88702109       9.09373067      22.67653718  T        2
Al       0.00000000       0.00000000      25.01480577  T        1
Al       2.86378246       0.00000000      25.01480577  T        1
Al       5.72756493       0.00000000      25.01480577  T        1
Al       8.59134739       0.00000000      25.01480577  T        1
Al       1.43189123       2.48010836      25.01480577  T        1
Al       4.29567370       2.48010836      25.01480577  T        1
Al       7.15945616       2.48010836      25.01480577  T        1
Al      10.02323862       2.48010836      25.01480577  T        1
Al       2.86378246       4.96021673      25.01480577  T        1
Al       5.72756493       4.96021673      25.01480577  T        1
Al       8.59134739       4.96021673      25.01480577  T        1
Al      11.45512986       4.96021673      25.01480577  T        1
Al       4.29567370       7.44032509      25.01480577  T        1
Al       7.15945616       7.44032509      25.01480577  T        1
Al      10.02323862       7.44032509      25.01480577  T        1
Al      12.88702109       7.44032509      25.01480577  T        1
O        5.72756493       2.48010836      27.01480577  T        0
H        5.72756493       3.24334736      26.41849677  T        0
H        5.72756493       1.71686936      26.41849677  T        0
67
Lattice="11.45512985522207 0.0 0.0 5.727564927611035 9.92043345827187 0.0 0.0 0.0 43.01480577065395" Properties=species:S:1:pos:R:3:move_mask:L:1:tags:I:1 surface_element=Al miller="_JSON [1, 1, 1]" slab_size="_JSON [4, 4, 4]" vacuum_angstrom=18.0 fixed_layers=2 fixed_atom_indices="_JSON [0, 1, 2, 3, 4, 5, 6, 7, 8, 9, 10, 11, 12, 13, 14, 15, 16, 17, 18, 19, 20, 21, 22, 23, 24, 25, 26, 27, 28, 29, 30, 31]" system_name=al111_h2o adsorbate=H2O site=bridge orientation=dipole_up height_angstrom=2.4 structure_id=1a38851781914f74 pbc="T T T"
Al       0.00000000       0.00000000      18.00000000  F        4
Al       2.86378246       0.00000000      18.00000000  F        4
Al       5.72756493       0.00000000      18.00000000  F        4
Al       8.59134739       0.00000000      18.00000000  F        4
Al       1.43189123       2.48010836      18.00000000  F        4
Al       4.29567370       2.48010836      18.00000000  F        4
Al       7.15945616       2.48010836      18.00000000  F        4
Al      10.02323862       2.48010836      18.00000000  F        4
Al       2.86378246       4.96021673      18.00000000  F        4
Al       5.72756493       4.96021673      18.00000000  F        4
Al       8.59134739       4.96021673      18.00000000  F        4
Al      11.45512986       4.96021673      18.00000000  F        4
Al       4.29567370       7.44032509      18.00000000  F        4
Al       7.15945616       7.44032509      18.00000000  F        4
Al      10.02323862       7.44032509      18.00000000  F        4
Al      12.88702109       7.44032509      18.00000000  F        4
Al       1.43189123       0.82670279      20.33826859  F        3
Al       4.29567370       0.82670279      20.33826859  F        3
Al       7.15945616       0.82670279      20.33826859  F        3
Al      10.02323862       0.82670279      20.33826859  F        3
Al       2.86378246       3.30681115      20.33826859  F        3
Al       5.72756493       3.30681115      20.33826859  F        3
Al       8.59134739       3.30681115      20.33826859  F        3
Al      11.45512986       3.30681115      20.33826859  F        3
Al       4.29567370       5.78691952      20.33826859  F        3
Al       7.15945616       5.78691952      20.33826859  F        3
Al      10.02323862       5.78691952      20.33826859  F        3
Al      12.88702109       5.78691952      20.33826859  F        3
Al       5.72756493       8.26702788      20.33826859  F        3
Al       8.59134739       8.26702788      20.33826859  F        3
Al      11.45512986       8.26702788      20.33826859  F        3
Al      14.31891232       8.26702788      20.33826859  F        3
Al      -0.00000000       1.65340558      22.67653718  T        2
Al       2.86378246       1.65340558      22.67653718  T        2
Al       5.72756493       1.65340558      22.67653718  T        2
Al       8.59134739       1.65340558      22.67653718  T        2
Al       1.43189123       4.13351394      22.67653718  T        2
Al       4.29567370       4.13351394      22.67653718  T        2
Al       7.15945616       4.13351394      22.67653718  T        2
Al      10.02323862       4.13351394      22.67653718  T        2
Al       2.86378246       6.61362231      22.67653718  T        2
Al       5.72756493       6.61362231      22.67653718  T        2
Al       8.59134739       6.61362231      22.67653718  T        2
Al      11.45512986       6.61362231      22.67653718  T        2
Al       4.29567370       9.09373067      22.67653718  T        2
Al       7.15945616       9.09373067      22.67653718  T        2
Al      10.02323862       9.09373067      22.67653718  T        2
Al      12.88702109       9.09373067      22.67653718  T        2
Al       0.00000000       0.00000000      25.01480577  T        1
Al       2.86378246       0.00000000      25.01480577  T        1
Al       5.72756493       0.00000000      25.01480577  T        1
Al       8.59134739       0.00000000      25.01480577  T        1
Al       1.43189123       2.48010836      25.01480577  T        1
Al       4.29567370       2.48010836      25.01480577  T        1
Al       7.15945616       2.48010836      25.01480577  T        1
Al      10.02323862       2.48010836      25.01480577  T        1
Al       2.86378246       4.96021673      25.01480577  T        1
Al       5.72756493       4.96021673      25.01480577  T        1
Al       8.59134739       4.96021673      25.01480577  T        1
Al      11.45512986       4.96021673      25.01480577  T        1
Al       4.29567370       7.44032509      25.01480577  T        1
Al       7.15945616       7.44032509      25.01480577  T        1
Al      10.02323862       7.44032509      25.01480577  T        1
Al      12.88702109       7.44032509      25.01480577  T        1
O        5.72756493       2.48010836      27.41480577  T        0
H        5.72756493       3.24334736      26.81849677  T        0
H        5.72756493       1.71686936      26.81849677  T        0
67
Lattice="11.45512985522207 0.0 0.0 5.727564927611035 9.92043345827187 0.0 0.0 0.0 43.01480577065395" Properties=species:S:1:pos:R:3:move_mask:L:1:tags:I:1 surface_element=Al miller="_JSON [1, 1, 1]" slab_size="_JSON [4, 4, 4]" vacuum_angstrom=18.0 fixed_layers=2 fixed_atom_indices="_JSON [0, 1, 2, 3, 4, 5, 6, 7, 8, 9, 10, 11, 12, 13, 14, 15, 16, 17, 18, 19, 20, 21, 22, 23, 24, 25, 26, 27, 28, 29, 30, 31]" system_name=al111_h2o adsorbate=H2O site=bridge orientation=dipole_up height_angstrom=2.8 structure_id=8dd35546fb7f93b7 pbc="T T T"
Al       0.00000000       0.00000000      18.00000000  F        4
Al       2.86378246       0.00000000      18.00000000  F        4
Al       5.72756493       0.00000000      18.00000000  F        4
Al       8.59134739       0.00000000      18.00000000  F        4
Al       1.43189123       2.48010836      18.00000000  F        4
Al       4.29567370       2.48010836      18.00000000  F        4
Al       7.15945616       2.48010836      18.00000000  F        4
Al      10.02323862       2.48010836      18.00000000  F        4
Al       2.86378246       4.96021673      18.00000000  F        4
Al       5.72756493       4.96021673      18.00000000  F        4
Al       8.59134739       4.96021673      18.00000000  F        4
Al      11.45512986       4.96021673      18.00000000  F        4
Al       4.29567370       7.44032509      18.00000000  F        4
Al       7.15945616       7.44032509      18.00000000  F        4
Al      10.02323862       7.44032509      18.00000000  F        4
Al      12.88702109       7.44032509      18.00000000  F        4
Al       1.43189123       0.82670279      20.33826859  F        3
Al       4.29567370       0.82670279      20.33826859  F        3
Al       7.15945616       0.82670279      20.33826859  F        3
Al      10.02323862       0.82670279      20.33826859  F        3
Al       2.86378246       3.30681115      20.33826859  F        3
Al       5.72756493       3.30681115      20.33826859  F        3
Al       8.59134739       3.30681115      20.33826859  F        3
Al      11.45512986       3.30681115      20.33826859  F        3
Al       4.29567370       5.78691952      20.33826859  F        3
Al       7.15945616       5.78691952      20.33826859  F        3
Al      10.02323862       5.78691952      20.33826859  F        3
Al      12.88702109       5.78691952      20.33826859  F        3
Al       5.72756493       8.26702788      20.33826859  F        3
Al       8.59134739       8.26702788      20.33826859  F        3
Al      11.45512986       8.26702788      20.33826859  F        3
Al      14.31891232       8.26702788      20.33826859  F        3
Al      -0.00000000       1.65340558      22.67653718  T        2
Al       2.86378246       1.65340558      22.67653718  T        2
Al       5.72756493       1.65340558      22.67653718  T        2
Al       8.59134739       1.65340558      22.67653718  T        2
Al       1.43189123       4.13351394      22.67653718  T        2
Al       4.29567370       4.13351394      22.67653718  T        2
Al       7.15945616       4.13351394      22.67653718  T        2
Al      10.02323862       4.13351394      22.67653718  T        2
Al       2.86378246       6.61362231      22.67653718  T        2
Al       5.72756493       6.61362231      22.67653718  T        2
Al       8.59134739       6.61362231      22.67653718  T        2
Al      11.45512986       6.61362231      22.67653718  T        2
Al       4.29567370       9.09373067      22.67653718  T        2
Al       7.15945616       9.09373067      22.67653718  T        2
Al      10.02323862       9.09373067      22.67653718  T        2
Al      12.88702109       9.09373067      22.67653718  T        2
Al       0.00000000       0.00000000      25.01480577  T        1
Al       2.86378246       0.00000000      25.01480577  T        1
Al       5.72756493       0.00000000      25.01480577  T        1
Al       8.59134739       0.00000000      25.01480577  T        1
Al       1.43189123       2.48010836      25.01480577  T        1
Al       4.29567370       2.48010836      25.01480577  T        1
Al       7.15945616       2.48010836      25.01480577  T        1
Al      10.02323862       2.48010836      25.01480577  T        1
Al       2.86378246       4.96021673      25.01480577  T        1
Al       5.72756493       4.96021673      25.01480577  T        1
Al       8.59134739       4.96021673      25.01480577  T        1
Al      11.45512986       4.96021673      25.01480577  T        1
Al       4.29567370       7.44032509      25.01480577  T        1
Al       7.15945616       7.44032509      25.01480577  T        1
Al      10.02323862       7.44032509      25.01480577  T        1
Al      12.88702109       7.44032509      25.01480577  T        1
O        5.72756493       2.48010836      27.81480577  T        0
H        5.72756493       3.24334736      27.21849677  T        0
H        5.72756493       1.71686936      27.21849677  T        0
67
Lattice="11.45512985522207 0.0 0.0 5.727564927611035 9.92043345827187 0.0 0.0 0.0 43.01480577065395" Properties=species:S:1:pos:R:3:move_mask:L:1:tags:I:1 surface_element=Al miller="_JSON [1, 1, 1]" slab_size="_JSON [4, 4, 4]" vacuum_angstrom=18.0 fixed_layers=2 fixed_atom_indices="_JSON [0, 1, 2, 3, 4, 5, 6, 7, 8, 9, 10, 11, 12, 13, 14, 15, 16, 17, 18, 19, 20, 21, 22, 23, 24, 25, 26, 27, 28, 29, 30, 31]" system_name=al111_h2o adsorbate=H2O site=bridge orientation=dipole_up height_angstrom=3.2 structure_id=ae0e480426a141b0 pbc="T T T"
Al       0.00000000       0.00000000      18.00000000  F        4
Al       2.86378246       0.00000000      18.00000000  F        4
Al       5.72756493       0.00000000      18.00000000  F        4
Al       8.59134739       0.00000000      18.00000000  F        4
Al       1.43189123       2.48010836      18.00000000  F        4
Al       4.29567370       2.48010836      18.00000000  F        4
Al       7.15945616       2.48010836      18.00000000  F        4
Al      10.02323862       2.48010836      18.00000000  F        4
Al       2.86378246       4.96021673      18.00000000  F        4
Al       5.72756493       4.96021673      18.00000000  F        4
Al       8.59134739       4.96021673      18.00000000  F        4
Al      11.45512986       4.96021673      18.00000000  F        4
Al       4.29567370       7.44032509      18.00000000  F        4
Al       7.15945616       7.44032509      18.00000000  F        4
Al      10.02323862       7.44032509      18.00000000  F        4
Al      12.88702109       7.44032509      18.00000000  F        4
Al       1.43189123       0.82670279      20.33826859  F        3
Al       4.29567370       0.82670279      20.33826859  F        3
Al       7.15945616       0.82670279      20.33826859  F        3
Al      10.02323862       0.82670279      20.33826859  F        3
Al       2.86378246       3.30681115      20.33826859  F        3
Al       5.72756493       3.30681115      20.33826859  F        3
Al       8.59134739       3.30681115      20.33826859  F        3
Al      11.45512986       3.30681115      20.33826859  F        3
Al       4.29567370       5.78691952      20.33826859  F        3
Al       7.15945616       5.78691952      20.33826859  F        3
Al      10.02323862       5.78691952      20.33826859  F        3
Al      12.88702109       5.78691952      20.33826859  F        3
Al       5.72756493       8.26702788      20.33826859  F        3
Al       8.59134739       8.26702788      20.33826859  F        3
Al      11.45512986       8.26702788      20.33826859  F        3
Al      14.31891232       8.26702788      20.33826859  F        3
Al      -0.00000000       1.65340558      22.67653718  T        2
Al       2.86378246       1.65340558      22.67653718  T        2
Al       5.72756493       1.65340558      22.67653718  T        2
Al       8.59134739       1.65340558      22.67653718  T        2
Al       1.43189123       4.13351394      22.67653718  T        2
Al       4.29567370       4.13351394      22.67653718  T        2
Al       7.15945616       4.13351394      22.67653718  T        2
Al      10.02323862       4.13351394      22.67653718  T        2
Al       2.86378246       6.61362231      22.67653718  T        2
Al       5.72756493       6.61362231      22.67653718  T        2
Al       8.59134739       6.61362231      22.67653718  T        2
Al      11.45512986       6.61362231      22.67653718  T        2
Al       4.29567370       9.09373067      22.67653718  T        2
Al       7.15945616       9.09373067      22.67653718  T        2
Al      10.02323862       9.09373067      22.67653718  T        2
Al      12.88702109       9.09373067      22.67653718  T        2
Al       0.00000000       0.00000000      25.01480577  T        1
Al       2.86378246       0.00000000      25.01480577  T        1
Al       5.72756493       0.00000000      25.01480577  T        1
Al       8.59134739       0.00000000      25.01480577  T        1
Al       1.43189123       2.48010836      25.01480577  T        1
Al       4.29567370       2.48010836      25.01480577  T        1
Al       7.15945616       2.48010836      25.01480577  T        1
Al      10.02323862       2.48010836      25.01480577  T        1
Al       2.86378246       4.96021673      25.01480577  T        1
Al       5.72756493       4.96021673      25.01480577  T        1
Al       8.59134739       4.96021673      25.01480577  T        1
Al      11.45512986       4.96021673      25.01480577  T        1
Al       4.29567370       7.44032509      25.01480577  T        1
Al       7.15945616       7.44032509      25.01480577  T        1
Al      10.02323862       7.44032509      25.01480577  T        1
Al      12.88702109       7.44032509      25.01480577  T        1
O        5.72756493       2.48010836      28.21480577  T        0
H        5.72756493       3.24334736      27.61849677  T        0
H        5.72756493       1.71686936      27.61849677  T        0
67
Lattice="11.45512985522207 0.0 0.0 5.727564927611035 9.92043345827187 0.0 0.0 0.0 43.01480577065395" Properties=species:S:1:pos:R:3:move_mask:L:1:tags:I:1 surface_element=Al miller="_JSON [1, 1, 1]" slab_size="_JSON [4, 4, 4]" vacuum_angstrom=18.0 fixed_layers=2 fixed_atom_indices="_JSON [0, 1, 2, 3, 4, 5, 6, 7, 8, 9, 10, 11, 12, 13, 14, 15, 16, 17, 18, 19, 20, 21, 22, 23, 24, 25, 26, 27, 28, 29, 30, 31]" system_name=al111_h2o adsorbate=H2O site=bridge orientation=flat height_angstrom=2.0 structure_id=3f52e953c8d90a59 pbc="T T T"
Al       0.00000000       0.00000000      18.00000000  F        4
Al       2.86378246       0.00000000      18.00000000  F        4
Al       5.72756493       0.00000000      18.00000000  F        4
Al       8.59134739       0.00000000      18.00000000  F        4
Al       1.43189123       2.48010836      18.00000000  F        4
Al       4.29567370       2.48010836      18.00000000  F        4
Al       7.15945616       2.48010836      18.00000000  F        4
Al      10.02323862       2.48010836      18.00000000  F        4
Al       2.86378246       4.96021673      18.00000000  F        4
Al       5.72756493       4.96021673      18.00000000  F        4
Al       8.59134739       4.96021673      18.00000000  F        4
Al      11.45512986       4.96021673      18.00000000  F        4
Al       4.29567370       7.44032509      18.00000000  F        4
Al       7.15945616       7.44032509      18.00000000  F        4
Al      10.02323862       7.44032509      18.00000000  F        4
Al      12.88702109       7.44032509      18.00000000  F        4
Al       1.43189123       0.82670279      20.33826859  F        3
Al       4.29567370       0.82670279      20.33826859  F        3
Al       7.15945616       0.82670279      20.33826859  F        3
Al      10.02323862       0.82670279      20.33826859  F        3
Al       2.86378246       3.30681115      20.33826859  F        3
Al       5.72756493       3.30681115      20.33826859  F        3
Al       8.59134739       3.30681115      20.33826859  F        3
Al      11.45512986       3.30681115      20.33826859  F        3
Al       4.29567370       5.78691952      20.33826859  F        3
Al       7.15945616       5.78691952      20.33826859  F        3
Al      10.02323862       5.78691952      20.33826859  F        3
Al      12.88702109       5.78691952      20.33826859  F        3
Al       5.72756493       8.26702788      20.33826859  F        3
Al       8.59134739       8.26702788      20.33826859  F        3
Al      11.45512986       8.26702788      20.33826859  F        3
Al      14.31891232       8.26702788      20.33826859  F        3
Al      -0.00000000       1.65340558      22.67653718  T        2
Al       2.86378246       1.65340558      22.67653718  T        2
Al       5.72756493       1.65340558      22.67653718  T        2
Al       8.59134739       1.65340558      22.67653718  T        2
Al       1.43189123       4.13351394      22.67653718  T        2
Al       4.29567370       4.13351394      22.67653718  T        2
Al       7.15945616       4.13351394      22.67653718  T        2
Al      10.02323862       4.13351394      22.67653718  T        2
Al       2.86378246       6.61362231      22.67653718  T        2
Al       5.72756493       6.61362231      22.67653718  T        2
Al       8.59134739       6.61362231      22.67653718  T        2
Al      11.45512986       6.61362231      22.67653718  T        2
Al       4.29567370       9.09373067      22.67653718  T        2
Al       7.15945616       9.09373067      22.67653718  T        2
Al      10.02323862       9.09373067      22.67653718  T        2
Al      12.88702109       9.09373067      22.67653718  T        2
Al       0.00000000       0.00000000      25.01480577  T        1
Al       2.86378246       0.00000000      25.01480577  T        1
Al       5.72756493       0.00000000      25.01480577  T        1
Al       8.59134739       0.00000000      25.01480577  T        1
Al       1.43189123       2.48010836      25.01480577  T        1
Al       4.29567370       2.48010836      25.01480577  T        1
Al       7.15945616       2.48010836      25.01480577  T        1
Al      10.02323862       2.48010836      25.01480577  T        1
Al       2.86378246       4.96021673      25.01480577  T        1
Al       5.72756493       4.96021673      25.01480577  T        1
Al       8.59134739       4.96021673      25.01480577  T        1
Al      11.45512986       4.96021673      25.01480577  T        1
Al       4.29567370       7.44032509      25.01480577  T        1
Al       7.15945616       7.44032509      25.01480577  T        1
Al      10.02323862       7.44032509      25.01480577  T        1
Al      12.88702109       7.44032509      25.01480577  T        1
O        5.72756493       2.48010836      27.01480577  T        0
H        5.13125593       3.24334736      27.01480577  T        0
H        5.13125593       1.71686936      27.01480577  T        0
67
Lattice="11.45512985522207 0.0 0.0 5.727564927611035 9.92043345827187 0.0 0.0 0.0 43.01480577065395" Properties=species:S:1:pos:R:3:move_mask:L:1:tags:I:1 surface_element=Al miller="_JSON [1, 1, 1]" slab_size="_JSON [4, 4, 4]" vacuum_angstrom=18.0 fixed_layers=2 fixed_atom_indices="_JSON [0, 1, 2, 3, 4, 5, 6, 7, 8, 9, 10, 11, 12, 13, 14, 15, 16, 17, 18, 19, 20, 21, 22, 23, 24, 25, 26, 27, 28, 29, 30, 31]" system_name=al111_h2o adsorbate=H2O site=bridge orientation=flat height_angstrom=2.4 structure_id=fdc545ac187a5851 pbc="T T T"
Al       0.00000000       0.00000000      18.00000000  F        4
Al       2.86378246       0.00000000      18.00000000  F        4
Al       5.72756493       0.00000000      18.00000000  F        4
Al       8.59134739       0.00000000      18.00000000  F        4
Al       1.43189123       2.48010836      18.00000000  F        4
Al       4.29567370       2.48010836      18.00000000  F        4
Al       7.15945616       2.48010836      18.00000000  F        4
Al      10.02323862       2.48010836      18.00000000  F        4
Al       2.86378246       4.96021673      18.00000000  F        4
Al       5.72756493       4.96021673      18.00000000  F        4
Al       8.59134739       4.96021673      18.00000000  F        4
Al      11.45512986       4.96021673      18.00000000  F        4
Al       4.29567370       7.44032509      18.00000000  F        4
Al       7.15945616       7.44032509      18.00000000  F        4
Al      10.02323862       7.44032509      18.00000000  F        4
Al      12.88702109       7.44032509      18.00000000  F        4
Al       1.43189123       0.82670279      20.33826859  F        3
Al       4.29567370       0.82670279      20.33826859  F        3
Al       7.15945616       0.82670279      20.33826859  F        3
Al      10.02323862       0.82670279      20.33826859  F        3
Al       2.86378246       3.30681115      20.33826859  F        3
Al       5.72756493       3.30681115      20.33826859  F        3
Al       8.59134739       3.30681115      20.33826859  F        3
Al      11.45512986       3.30681115      20.33826859  F        3
Al       4.29567370       5.78691952      20.33826859  F        3
Al       7.15945616       5.78691952      20.33826859  F        3
Al      10.02323862       5.78691952      20.33826859  F        3
Al      12.88702109       5.78691952      20.33826859  F        3
Al       5.72756493       8.26702788      20.33826859  F        3
Al       8.59134739       8.26702788      20.33826859  F        3
Al      11.45512986       8.26702788      20.33826859  F        3
Al      14.31891232       8.26702788      20.33826859  F        3
Al      -0.00000000       1.65340558      22.67653718  T        2
Al       2.86378246       1.65340558      22.67653718  T        2
Al       5.72756493       1.65340558      22.67653718  T        2
Al       8.59134739       1.65340558      22.67653718  T        2
Al       1.43189123       4.13351394      22.67653718  T        2
Al       4.29567370       4.13351394      22.67653718  T        2
Al       7.15945616       4.13351394      22.67653718  T        2
Al      10.02323862       4.13351394      22.67653718  T        2
Al       2.86378246       6.61362231      22.67653718  T        2
Al       5.72756493       6.61362231      22.67653718  T        2
Al       8.59134739       6.61362231      22.67653718  T        2
Al      11.45512986       6.61362231      22.67653718  T        2
Al       4.29567370       9.09373067      22.67653718  T        2
Al       7.15945616       9.09373067      22.67653718  T        2
Al      10.02323862       9.09373067      22.67653718  T        2
Al      12.88702109       9.09373067      22.67653718  T        2
Al       0.00000000       0.00000000      25.01480577  T        1
Al       2.86378246       0.00000000      25.01480577  T        1
Al       5.72756493       0.00000000      25.01480577  T        1
Al       8.59134739       0.00000000      25.01480577  T        1
Al       1.43189123       2.48010836      25.01480577  T        1
Al       4.29567370       2.48010836      25.01480577  T        1
Al       7.15945616       2.48010836      25.01480577  T        1
Al      10.02323862       2.48010836      25.01480577  T        1
Al       2.86378246       4.96021673      25.01480577  T        1
Al       5.72756493       4.96021673      25.01480577  T        1
Al       8.59134739       4.96021673      25.01480577  T        1
Al      11.45512986       4.96021673      25.01480577  T        1
Al       4.29567370       7.44032509      25.01480577  T        1
Al       7.15945616       7.44032509      25.01480577  T        1
Al      10.02323862       7.44032509      25.01480577  T        1
Al      12.88702109       7.44032509      25.01480577  T        1
O        5.72756493       2.48010836      27.41480577  T        0
H        5.13125593       3.24334736      27.41480577  T        0
H        5.13125593       1.71686936      27.41480577  T        0
67
Lattice="11.45512985522207 0.0 0.0 5.727564927611035 9.92043345827187 0.0 0.0 0.0 43.01480577065395" Properties=species:S:1:pos:R:3:move_mask:L:1:tags:I:1 surface_element=Al miller="_JSON [1, 1, 1]" slab_size="_JSON [4, 4, 4]" vacuum_angstrom=18.0 fixed_layers=2 fixed_atom_indices="_JSON [0, 1, 2, 3, 4, 5, 6, 7, 8, 9, 10, 11, 12, 13, 14, 15, 16, 17, 18, 19, 20, 21, 22, 23, 24, 25, 26, 27, 28, 29, 30, 31]" system_name=al111_h2o adsorbate=H2O site=bridge orientation=flat height_angstrom=2.8 structure_id=fc3cb591c4419ea5 pbc="T T T"
Al       0.00000000       0.00000000      18.00000000  F        4
Al       2.86378246       0.00000000      18.00000000  F        4
Al       5.72756493       0.00000000      18.00000000  F        4
Al       8.59134739       0.00000000      18.00000000  F        4
Al       1.43189123       2.48010836      18.00000000  F        4
Al       4.29567370       2.48010836      18.00000000  F        4
Al       7.15945616       2.48010836      18.00000000  F        4
Al      10.02323862       2.48010836      18.00000000  F        4
Al       2.86378246       4.96021673      18.00000000  F        4
Al       5.72756493       4.96021673      18.00000000  F        4
Al       8.59134739       4.96021673      18.00000000  F        4
Al      11.45512986       4.96021673      18.00000000  F        4
Al       4.29567370       7.44032509      18.00000000  F        4
Al       7.15945616       7.44032509      18.00000000  F        4
Al      10.02323862       7.44032509      18.00000000  F        4
Al      12.88702109       7.44032509      18.00000000  F        4
Al       1.43189123       0.82670279      20.33826859  F        3
Al       4.29567370       0.82670279      20.33826859  F        3
Al       7.15945616       0.82670279      20.33826859  F        3
Al      10.02323862       0.82670279      20.33826859  F        3
Al       2.86378246       3.30681115      20.33826859  F        3
Al       5.72756493       3.30681115      20.33826859  F        3
Al       8.59134739       3.30681115      20.33826859  F        3
Al      11.45512986       3.30681115      20.33826859  F        3
Al       4.29567370       5.78691952      20.33826859  F        3
Al       7.15945616       5.78691952      20.33826859  F        3
Al      10.02323862       5.78691952      20.33826859  F        3
Al      12.88702109       5.78691952      20.33826859  F        3
Al       5.72756493       8.26702788      20.33826859  F        3
Al       8.59134739       8.26702788      20.33826859  F        3
Al      11.45512986       8.26702788      20.33826859  F        3
Al      14.31891232       8.26702788      20.33826859  F        3
Al      -0.00000000       1.65340558      22.67653718  T        2
Al       2.86378246       1.65340558      22.67653718  T        2
Al       5.72756493       1.65340558      22.67653718  T        2
Al       8.59134739       1.65340558      22.67653718  T        2
Al       1.43189123       4.13351394      22.67653718  T        2
Al       4.29567370       4.13351394      22.67653718  T        2
Al       7.15945616       4.13351394      22.67653718  T        2
Al      10.02323862       4.13351394      22.67653718  T        2
Al       2.86378246       6.61362231      22.67653718  T        2
Al       5.72756493       6.61362231      22.67653718  T        2
Al       8.59134739       6.61362231      22.67653718  T        2
Al      11.45512986       6.61362231      22.67653718  T        2
Al       4.29567370       9.09373067      22.67653718  T        2
Al       7.15945616       9.09373067      22.67653718  T        2
Al      10.02323862       9.09373067      22.67653718  T        2
Al      12.88702109       9.09373067      22.67653718  T        2
Al       0.00000000       0.00000000      25.01480577  T        1
Al       2.86378246       0.00000000      25.01480577  T        1
Al       5.72756493       0.00000000      25.01480577  T        1
Al       8.59134739       0.00000000      25.01480577  T        1
Al       1.43189123       2.48010836      25.01480577  T        1
Al       4.29567370       2.48010836      25.01480577  T        1
Al       7.15945616       2.48010836      25.01480577  T        1
Al      10.02323862       2.48010836      25.01480577  T        1
Al       2.86378246       4.96021673      25.01480577  T        1
Al       5.72756493       4.96021673      25.01480577  T        1
Al       8.59134739       4.96021673      25.01480577  T        1
Al      11.45512986       4.96021673      25.01480577  T        1
Al       4.29567370       7.44032509      25.01480577  T        1
Al       7.15945616       7.44032509      25.01480577  T        1
Al      10.02323862       7.44032509      25.01480577  T        1
Al      12.88702109       7.44032509      25.01480577  T        1
O        5.72756493       2.48010836      27.81480577  T        0
H        5.13125593       3.24334736      27.81480577  T        0
H        5.13125593       1.71686936      27.81480577  T        0
67
Lattice="11.45512985522207 0.0 0.0 5.727564927611035 9.92043345827187 0.0 0.0 0.0 43.01480577065395" Properties=species:S:1:pos:R:3:move_mask:L:1:tags:I:1 surface_element=Al miller="_JSON [1, 1, 1]" slab_size="_JSON [4, 4, 4]" vacuum_angstrom=18.0 fixed_layers=2 fixed_atom_indices="_JSON [0, 1, 2, 3, 4, 5, 6, 7, 8, 9, 10, 11, 12, 13, 14, 15, 16, 17, 18, 19, 20, 21, 22, 23, 24, 25, 26, 27, 28, 29, 30, 31]" system_name=al111_h2o adsorbate=H2O site=bridge orientation=flat height_angstrom=3.2 structure_id=af5fe28471ede08f pbc="T T T"
Al       0.00000000       0.00000000      18.00000000  F        4
Al       2.86378246       0.00000000      18.00000000  F        4
Al       5.72756493       0.00000000      18.00000000  F        4
Al       8.59134739       0.00000000      18.00000000  F        4
Al       1.43189123       2.48010836      18.00000000  F        4
Al       4.29567370       2.48010836      18.00000000  F        4
Al       7.15945616       2.48010836      18.00000000  F        4
Al      10.02323862       2.48010836      18.00000000  F        4
Al       2.86378246       4.96021673      18.00000000  F        4
Al       5.72756493       4.96021673      18.00000000  F        4
Al       8.59134739       4.96021673      18.00000000  F        4
Al      11.45512986       4.96021673      18.00000000  F        4
Al       4.29567370       7.44032509      18.00000000  F        4
Al       7.15945616       7.44032509      18.00000000  F        4
Al      10.02323862       7.44032509      18.00000000  F        4
Al      12.88702109       7.44032509      18.00000000  F        4
Al       1.43189123       0.82670279      20.33826859  F        3
Al       4.29567370       0.82670279      20.33826859  F        3
Al       7.15945616       0.82670279      20.33826859  F        3
Al      10.02323862       0.82670279      20.33826859  F        3
Al       2.86378246       3.30681115      20.33826859  F        3
Al       5.72756493       3.30681115      20.33826859  F        3
Al       8.59134739       3.30681115      20.33826859  F        3
Al      11.45512986       3.30681115      20.33826859  F        3
Al       4.29567370       5.78691952      20.33826859  F        3
Al       7.15945616       5.78691952      20.33826859  F        3
Al      10.02323862       5.78691952      20.33826859  F        3
Al      12.88702109       5.78691952      20.33826859  F        3
Al       5.72756493       8.26702788      20.33826859  F        3
Al       8.59134739       8.26702788      20.33826859  F        3
Al      11.45512986       8.26702788      20.33826859  F        3
Al      14.31891232       8.26702788      20.33826859  F        3
Al      -0.00000000       1.65340558      22.67653718  T        2
Al       2.86378246       1.65340558      22.67653718  T        2
Al       5.72756493       1.65340558      22.67653718  T        2
Al       8.59134739       1.65340558      22.67653718  T        2
Al       1.43189123       4.13351394      22.67653718  T        2
Al       4.29567370       4.13351394      22.67653718  T        2
Al       7.15945616       4.13351394      22.67653718  T        2
Al      10.02323862       4.13351394      22.67653718  T        2
Al       2.86378246       6.61362231      22.67653718  T        2
Al       5.72756493       6.61362231      22.67653718  T        2
Al       8.59134739       6.61362231      22.67653718  T        2
Al      11.45512986       6.61362231      22.67653718  T        2
Al       4.29567370       9.09373067      22.67653718  T        2
Al       7.15945616       9.09373067      22.67653718  T        2
Al      10.02323862       9.09373067      22.67653718  T        2
Al      12.88702109       9.09373067      22.67653718  T        2
Al       0.00000000       0.00000000      25.01480577  T        1
Al       2.86378246       0.00000000      25.01480577  T        1
Al       5.72756493       0.00000000      25.01480577  T        1
Al       8.59134739       0.00000000      25.01480577  T        1
Al       1.43189123       2.48010836      25.01480577  T        1
Al       4.29567370       2.48010836      25.01480577  T        1
Al       7.15945616       2.48010836      25.01480577  T        1
Al      10.02323862       2.48010836      25.01480577  T        1
Al       2.86378246       4.96021673      25.01480577  T        1
Al       5.72756493       4.96021673      25.01480577  T        1
Al       8.59134739       4.96021673      25.01480577  T        1
Al      11.45512986       4.96021673      25.01480577  T        1
Al       4.29567370       7.44032509      25.01480577  T        1
Al       7.15945616       7.44032509      25.01480577  T        1
Al      10.02323862       7.44032509      25.01480577  T        1
Al      12.88702109       7.44032509      25.01480577  T        1
O        5.72756493       2.48010836      28.21480577  T        0
H        5.13125593       3.24334736      28.21480577  T        0
H        5.13125593       1.71686936      28.21480577  T        0
67
Lattice="11.45512985522207 0.0 0.0 5.727564927611035 9.92043345827187 0.0 0.0 0.0 43.01480577065395" Properties=species:S:1:pos:R:3:move_mask:L:1:tags:I:1 surface_element=Al miller="_JSON [1, 1, 1]" slab_size="_JSON [4, 4, 4]" vacuum_angstrom=18.0 fixed_layers=2 fixed_atom_indices="_JSON [0, 1, 2, 3, 4, 5, 6, 7, 8, 9, 10, 11, 12, 13, 14, 15, 16, 17, 18, 19, 20, 21, 22, 23, 24, 25, 26, 27, 28, 29, 30, 31]" system_name=al111_h2o adsorbate=H2O site=fcc orientation=dipole_down height_angstrom=2.0 structure_id=2b7b1b19a0ec2937 pbc="T T T"
Al       0.00000000       0.00000000      18.00000000  F        4
Al       2.86378246       0.00000000      18.00000000  F        4
Al       5.72756493       0.00000000      18.00000000  F        4
Al       8.59134739       0.00000000      18.00000000  F        4
Al       1.43189123       2.48010836      18.00000000  F        4
Al       4.29567370       2.48010836      18.00000000  F        4
Al       7.15945616       2.48010836      18.00000000  F        4
Al      10.02323862       2.48010836      18.00000000  F        4
Al       2.86378246       4.96021673      18.00000000  F        4
Al       5.72756493       4.96021673      18.00000000  F        4
Al       8.59134739       4.96021673      18.00000000  F        4
Al      11.45512986       4.96021673      18.00000000  F        4
Al       4.29567370       7.44032509      18.00000000  F        4
Al       7.15945616       7.44032509      18.00000000  F        4
Al      10.02323862       7.44032509      18.00000000  F        4
Al      12.88702109       7.44032509      18.00000000  F        4
Al       1.43189123       0.82670279      20.33826859  F        3
Al       4.29567370       0.82670279      20.33826859  F        3
Al       7.15945616       0.82670279      20.33826859  F        3
Al      10.02323862       0.82670279      20.33826859  F        3
Al       2.86378246       3.30681115      20.33826859  F        3
Al       5.72756493       3.30681115      20.33826859  F        3
Al       8.59134739       3.30681115      20.33826859  F        3
Al      11.45512986       3.30681115      20.33826859  F        3
Al       4.29567370       5.78691952      20.33826859  F        3
Al       7.15945616       5.78691952      20.33826859  F        3
Al      10.02323862       5.78691952      20.33826859  F        3
Al      12.88702109       5.78691952      20.33826859  F        3
Al       5.72756493       8.26702788      20.33826859  F        3
Al       8.59134739       8.26702788      20.33826859  F        3
Al      11.45512986       8.26702788      20.33826859  F        3
Al      14.31891232       8.26702788      20.33826859  F        3
Al      -0.00000000       1.65340558      22.67653718  T        2
Al       2.86378246       1.65340558      22.67653718  T        2
Al       5.72756493       1.65340558      22.67653718  T        2
Al       8.59134739       1.65340558      22.67653718  T        2
Al       1.43189123       4.13351394      22.67653718  T        2
Al       4.29567370       4.13351394      22.67653718  T        2
Al       7.15945616       4.13351394      22.67653718  T        2
Al      10.02323862       4.13351394      22.67653718  T        2
Al       2.86378246       6.61362231      22.67653718  T        2
Al       5.72756493       6.61362231      22.67653718  T        2
Al       8.59134739       6.61362231      22.67653718  T        2
Al      11.45512986       6.61362231      22.67653718  T        2
Al       4.29567370       9.09373067      22.67653718  T        2
Al       7.15945616       9.09373067      22.67653718  T        2
Al      10.02323862       9.09373067      22.67653718  T        2
Al      12.88702109       9.09373067      22.67653718  T        2
Al       0.00000000       0.00000000      25.01480577  T        1
Al       2.86378246       0.00000000      25.01480577  T        1
Al       5.72756493       0.00000000      25.01480577  T        1
Al       8.59134739       0.00000000      25.01480577  T        1
Al       1.43189123       2.48010836      25.01480577  T        1
Al       4.29567370       2.48010836      25.01480577  T        1
Al       7.15945616       2.48010836      25.01480577  T        1
Al      10.02323862       2.48010836      25.01480577  T        1
Al       2.86378246       4.96021673      25.01480577  T        1
Al       5.72756493       4.96021673      25.01480577  T        1
Al       8.59134739       4.96021673      25.01480577  T        1
Al      11.45512986       4.96021673      25.01480577  T        1
Al       4.29567370       7.44032509      25.01480577  T        1
Al       7.15945616       7.44032509      25.01480577  T        1
Al      10.02323862       7.44032509      25.01480577  T        1
Al      12.88702109       7.44032509      25.01480577  T        1
O        7.15945616       4.13351394      27.01480577  T        0
H        7.15945616       3.37027494      27.61111477  T        0
H        7.15945616       4.89675294      27.61111477  T        0
67
Lattice="11.45512985522207 0.0 0.0 5.727564927611035 9.92043345827187 0.0 0.0 0.0 43.01480577065395" Properties=species:S:1:pos:R:3:move_mask:L:1:tags:I:1 surface_element=Al miller="_JSON [1, 1, 1]" slab_size="_JSON [4, 4, 4]" vacuum_angstrom=18.0 fixed_layers=2 fixed_atom_indices="_JSON [0, 1, 2, 3, 4, 5, 6, 7, 8, 9, 10, 11, 12, 13, 14, 15, 16, 17, 18, 19, 20, 21, 22, 23, 24, 25, 26, 27, 28, 29, 30, 31]" system_name=al111_h2o adsorbate=H2O site=fcc orientation=dipole_down height_angstrom=2.4 structure_id=c2bb8d36fb6d59b5 pbc="T T T"
Al       0.00000000       0.00000000      18.00000000  F        4
Al       2.86378246       0.00000000      18.00000000  F        4
Al       5.72756493       0.00000000      18.00000000  F        4
Al       8.59134739       0.00000000      18.00000000  F        4
Al       1.43189123       2.48010836      18.00000000  F        4
Al       4.29567370       2.48010836      18.00000000  F        4
Al       7.15945616       2.48010836      18.00000000  F        4
Al      10.02323862       2.48010836      18.00000000  F        4
Al       2.86378246       4.96021673      18.00000000  F        4
Al       5.72756493       4.96021673      18.00000000  F        4
Al       8.59134739       4.96021673      18.00000000  F        4
Al      11.45512986       4.96021673      18.00000000  F        4
Al       4.29567370       7.44032509      18.00000000  F        4
Al       7.15945616       7.44032509      18.00000000  F        4
Al      10.02323862       7.44032509      18.00000000  F        4
Al      12.88702109       7.44032509      18.00000000  F        4
Al       1.43189123       0.82670279      20.33826859  F        3
Al       4.29567370       0.82670279      20.33826859  F        3
Al       7.15945616       0.82670279      20.33826859  F        3
Al      10.02323862       0.82670279      20.33826859  F        3
Al       2.86378246       3.30681115      20.33826859  F        3
Al       5.72756493       3.30681115      20.33826859  F        3
Al       8.59134739       3.30681115      20.33826859  F        3
Al      11.45512986       3.30681115      20.33826859  F        3
Al       4.29567370       5.78691952      20.33826859  F        3
Al       7.15945616       5.78691952      20.33826859  F        3
Al      10.02323862       5.78691952      20.33826859  F        3
Al      12.88702109       5.78691952      20.33826859  F        3
Al       5.72756493       8.26702788      20.33826859  F        3
Al       8.59134739       8.26702788      20.33826859  F        3
Al      11.45512986       8.26702788      20.33826859  F        3
Al      14.31891232       8.26702788      20.33826859  F        3
Al      -0.00000000       1.65340558      22.67653718  T        2
Al       2.86378246       1.65340558      22.67653718  T        2
Al       5.72756493       1.65340558      22.67653718  T        2
Al       8.59134739       1.65340558      22.67653718  T        2
Al       1.43189123       4.13351394      22.67653718  T        2
Al       4.29567370       4.13351394      22.67653718  T        2
Al       7.15945616       4.13351394      22.67653718  T        2
Al      10.02323862       4.13351394      22.67653718  T        2
Al       2.86378246       6.61362231      22.67653718  T        2
Al       5.72756493       6.61362231      22.67653718  T        2
Al       8.59134739       6.61362231      22.67653718  T        2
Al      11.45512986       6.61362231      22.67653718  T        2
Al       4.29567370       9.09373067      22.67653718  T        2
Al       7.15945616       9.09373067      22.67653718  T        2
Al      10.02323862       9.09373067      22.67653718  T        2
Al      12.88702109       9.09373067      22.67653718  T        2
Al       0.00000000       0.00000000      25.01480577  T        1
Al       2.86378246       0.00000000      25.01480577  T        1
Al       5.72756493       0.00000000      25.01480577  T        1
Al       8.59134739       0.00000000      25.01480577  T        1
Al       1.43189123       2.48010836      25.01480577  T        1
Al       4.29567370       2.48010836      25.01480577  T        1
Al       7.15945616       2.48010836      25.01480577  T        1
Al      10.02323862       2.48010836      25.01480577  T        1
Al       2.86378246       4.96021673      25.01480577  T        1
Al       5.72756493       4.96021673      25.01480577  T        1
Al       8.59134739       4.96021673      25.01480577  T        1
Al      11.45512986       4.96021673      25.01480577  T        1
Al       4.29567370       7.44032509      25.01480577  T        1
Al       7.15945616       7.44032509      25.01480577  T        1
Al      10.02323862       7.44032509      25.01480577  T        1
Al      12.88702109       7.44032509      25.01480577  T        1
O        7.15945616       4.13351394      27.41480577  T        0
H        7.15945616       3.37027494      28.01111477  T        0
H        7.15945616       4.89675294      28.01111477  T        0
67
Lattice="11.45512985522207 0.0 0.0 5.727564927611035 9.92043345827187 0.0 0.0 0.0 43.01480577065395" Properties=species:S:1:pos:R:3:move_mask:L:1:tags:I:1 surface_element=Al miller="_JSON [1, 1, 1]" slab_size="_JSON [4, 4, 4]" vacuum_angstrom=18.0 fixed_layers=2 fixed_atom_indices="_JSON [0, 1, 2, 3, 4, 5, 6, 7, 8, 9, 10, 11, 12, 13, 14, 15, 16, 17, 18, 19, 20, 21, 22, 23, 24, 25, 26, 27, 28, 29, 30, 31]" system_name=al111_h2o adsorbate=H2O site=fcc orientation=dipole_down height_angstrom=2.8 structure_id=2b8274a7f1715f83 pbc="T T T"
Al       0.00000000       0.00000000      18.00000000  F        4
Al       2.86378246       0.00000000      18.00000000  F        4
Al       5.72756493       0.00000000      18.00000000  F        4
Al       8.59134739       0.00000000      18.00000000  F        4
Al       1.43189123       2.48010836      18.00000000  F        4
Al       4.29567370       2.48010836      18.00000000  F        4
Al       7.15945616       2.48010836      18.00000000  F        4
Al      10.02323862       2.48010836      18.00000000  F        4
Al       2.86378246       4.96021673      18.00000000  F        4
Al       5.72756493       4.96021673      18.00000000  F        4
Al       8.59134739       4.96021673      18.00000000  F        4
Al      11.45512986       4.96021673      18.00000000  F        4
Al       4.29567370       7.44032509      18.00000000  F        4
Al       7.15945616       7.44032509      18.00000000  F        4
Al      10.02323862       7.44032509      18.00000000  F        4
Al      12.88702109       7.44032509      18.00000000  F        4
Al       1.43189123       0.82670279      20.33826859  F        3
Al       4.29567370       0.82670279      20.33826859  F        3
Al       7.15945616       0.82670279      20.33826859  F        3
Al      10.02323862       0.82670279      20.33826859  F        3
Al       2.86378246       3.30681115      20.33826859  F        3
Al       5.72756493       3.30681115      20.33826859  F        3
Al       8.59134739       3.30681115      20.33826859  F        3
Al      11.45512986       3.30681115      20.33826859  F        3
Al       4.29567370       5.78691952      20.33826859  F        3
Al       7.15945616       5.78691952      20.33826859  F        3
Al      10.02323862       5.78691952      20.33826859  F        3
Al      12.88702109       5.78691952      20.33826859  F        3
Al       5.72756493       8.26702788      20.33826859  F        3
Al       8.59134739       8.26702788      20.33826859  F        3
Al      11.45512986       8.26702788      20.33826859  F        3
Al      14.31891232       8.26702788      20.33826859  F        3
Al      -0.00000000       1.65340558      22.67653718  T        2
Al       2.86378246       1.65340558      22.67653718  T        2
Al       5.72756493       1.65340558      22.67653718  T        2
Al       8.59134739       1.65340558      22.67653718  T        2
Al       1.43189123       4.13351394      22.67653718  T        2
Al       4.29567370       4.13351394      22.67653718  T        2
Al       7.15945616       4.13351394      22.67653718  T        2
Al      10.02323862       4.13351394      22.67653718  T        2
Al       2.86378246       6.61362231      22.67653718  T        2
Al       5.72756493       6.61362231      22.67653718  T        2
Al       8.59134739       6.61362231      22.67653718  T        2
Al      11.45512986       6.61362231      22.67653718  T        2
Al       4.29567370       9.09373067      22.67653718  T        2
Al       7.15945616       9.09373067      22.67653718  T        2
Al      10.02323862       9.09373067      22.67653718  T        2
Al      12.88702109       9.09373067      22.67653718  T        2
Al       0.00000000       0.00000000      25.01480577  T        1
Al       2.86378246       0.00000000      25.01480577  T        1
Al       5.72756493       0.00000000      25.01480577  T        1
Al       8.59134739       0.00000000      25.01480577  T        1
Al       1.43189123       2.48010836      25.01480577  T        1
Al       4.29567370       2.48010836      25.01480577  T        1
Al       7.15945616       2.48010836      25.01480577  T        1
Al      10.02323862       2.48010836      25.01480577  T        1
Al       2.86378246       4.96021673      25.01480577  T        1
Al       5.72756493       4.96021673      25.01480577  T        1
Al       8.59134739       4.96021673      25.01480577  T        1
Al      11.45512986       4.96021673      25.01480577  T        1
Al       4.29567370       7.44032509      25.01480577  T        1
Al       7.15945616       7.44032509      25.01480577  T        1
Al      10.02323862       7.44032509      25.01480577  T        1
Al      12.88702109       7.44032509      25.01480577  T        1
O        7.15945616       4.13351394      27.81480577  T        0
H        7.15945616       3.37027494      28.41111477  T        0
H        7.15945616       4.89675294      28.41111477  T        0
67
Lattice="11.45512985522207 0.0 0.0 5.727564927611035 9.92043345827187 0.0 0.0 0.0 43.01480577065395" Properties=species:S:1:pos:R:3:move_mask:L:1:tags:I:1 surface_element=Al miller="_JSON [1, 1, 1]" slab_size="_JSON [4, 4, 4]" vacuum_angstrom=18.0 fixed_layers=2 fixed_atom_indices="_JSON [0, 1, 2, 3, 4, 5, 6, 7, 8, 9, 10, 11, 12, 13, 14, 15, 16, 17, 18, 19, 20, 21, 22, 23, 24, 25, 26, 27, 28, 29, 30, 31]" system_name=al111_h2o adsorbate=H2O site=fcc orientation=dipole_down height_angstrom=3.2 structure_id=fbbcf79c17990fe0 pbc="T T T"
Al       0.00000000       0.00000000      18.00000000  F        4
Al       2.86378246       0.00000000      18.00000000  F        4
Al       5.72756493       0.00000000      18.00000000  F        4
Al       8.59134739       0.00000000      18.00000000  F        4
Al       1.43189123       2.48010836      18.00000000  F        4
Al       4.29567370       2.48010836      18.00000000  F        4
Al       7.15945616       2.48010836      18.00000000  F        4
Al      10.02323862       2.48010836      18.00000000  F        4
Al       2.86378246       4.96021673      18.00000000  F        4
Al       5.72756493       4.96021673      18.00000000  F        4
Al       8.59134739       4.96021673      18.00000000  F        4
Al      11.45512986       4.96021673      18.00000000  F        4
Al       4.29567370       7.44032509      18.00000000  F        4
Al       7.15945616       7.44032509      18.00000000  F        4
Al      10.02323862       7.44032509      18.00000000  F        4
Al      12.88702109       7.44032509      18.00000000  F        4
Al       1.43189123       0.82670279      20.33826859  F        3
Al       4.29567370       0.82670279      20.33826859  F        3
Al       7.15945616       0.82670279      20.33826859  F        3
Al      10.02323862       0.82670279      20.33826859  F        3
Al       2.86378246       3.30681115      20.33826859  F        3
Al       5.72756493       3.30681115      20.33826859  F        3
Al       8.59134739       3.30681115      20.33826859  F        3
Al      11.45512986       3.30681115      20.33826859  F        3
Al       4.29567370       5.78691952      20.33826859  F        3
Al       7.15945616       5.78691952      20.33826859  F        3
Al      10.02323862       5.78691952      20.33826859  F        3
Al      12.88702109       5.78691952      20.33826859  F        3
Al       5.72756493       8.26702788      20.33826859  F        3
Al       8.59134739       8.26702788      20.33826859  F        3
Al      11.45512986       8.26702788      20.33826859  F        3
Al      14.31891232       8.26702788      20.33826859  F        3
Al      -0.00000000       1.65340558      22.67653718  T        2
Al       2.86378246       1.65340558      22.67653718  T        2
Al       5.72756493       1.65340558      22.67653718  T        2
Al       8.59134739       1.65340558      22.67653718  T        2
Al       1.43189123       4.13351394      22.67653718  T        2
Al       4.29567370       4.13351394      22.67653718  T        2
Al       7.15945616       4.13351394      22.67653718  T        2
Al      10.02323862       4.13351394      22.67653718  T        2
Al       2.86378246       6.61362231      22.67653718  T        2
Al       5.72756493       6.61362231      22.67653718  T        2
Al       8.59134739       6.61362231      22.67653718  T        2
Al      11.45512986       6.61362231      22.67653718  T        2
Al       4.29567370       9.09373067      22.67653718  T        2
Al       7.15945616       9.09373067      22.67653718  T        2
Al      10.02323862       9.09373067      22.67653718  T        2
Al      12.88702109       9.09373067      22.67653718  T        2
Al       0.00000000       0.00000000      25.01480577  T        1
Al       2.86378246       0.00000000      25.01480577  T        1
Al       5.72756493       0.00000000      25.01480577  T        1
Al       8.59134739       0.00000000      25.01480577  T        1
Al       1.43189123       2.48010836      25.01480577  T        1
Al       4.29567370       2.48010836      25.01480577  T        1
Al       7.15945616       2.48010836      25.01480577  T        1
Al      10.02323862       2.48010836      25.01480577  T        1
Al       2.86378246       4.96021673      25.01480577  T        1
Al       5.72756493       4.96021673      25.01480577  T        1
Al       8.59134739       4.96021673      25.01480577  T        1
Al      11.45512986       4.96021673      25.01480577  T        1
Al       4.29567370       7.44032509      25.01480577  T        1
Al       7.15945616       7.44032509      25.01480577  T        1
Al      10.02323862       7.44032509      25.01480577  T        1
Al      12.88702109       7.44032509      25.01480577  T        1
O        7.15945616       4.13351394      28.21480577  T        0
H        7.15945616       3.37027494      28.81111477  T        0
H        7.15945616       4.89675294      28.81111477  T        0
67
Lattice="11.45512985522207 0.0 0.0 5.727564927611035 9.92043345827187 0.0 0.0 0.0 43.01480577065395" Properties=species:S:1:pos:R:3:move_mask:L:1:tags:I:1 surface_element=Al miller="_JSON [1, 1, 1]" slab_size="_JSON [4, 4, 4]" vacuum_angstrom=18.0 fixed_layers=2 fixed_atom_indices="_JSON [0, 1, 2, 3, 4, 5, 6, 7, 8, 9, 10, 11, 12, 13, 14, 15, 16, 17, 18, 19, 20, 21, 22, 23, 24, 25, 26, 27, 28, 29, 30, 31]" system_name=al111_h2o adsorbate=H2O site=fcc orientation=dipole_up height_angstrom=2.0 structure_id=2755bb0b76df4534 pbc="T T T"
Al       0.00000000       0.00000000      18.00000000  F        4
Al       2.86378246       0.00000000      18.00000000  F        4
Al       5.72756493       0.00000000      18.00000000  F        4
Al       8.59134739       0.00000000      18.00000000  F        4
Al       1.43189123       2.48010836      18.00000000  F        4
Al       4.29567370       2.48010836      18.00000000  F        4
Al       7.15945616       2.48010836      18.00000000  F        4
Al      10.02323862       2.48010836      18.00000000  F        4
Al       2.86378246       4.96021673      18.00000000  F        4
Al       5.72756493       4.96021673      18.00000000  F        4
Al       8.59134739       4.96021673      18.00000000  F        4
Al      11.45512986       4.96021673      18.00000000  F        4
Al       4.29567370       7.44032509      18.00000000  F        4
Al       7.15945616       7.44032509      18.00000000  F        4
Al      10.02323862       7.44032509      18.00000000  F        4
Al      12.88702109       7.44032509      18.00000000  F        4
Al       1.43189123       0.82670279      20.33826859  F        3
Al       4.29567370       0.82670279      20.33826859  F        3
Al       7.15945616       0.82670279      20.33826859  F        3
Al      10.02323862       0.82670279      20.33826859  F        3
Al       2.86378246       3.30681115      20.33826859  F        3
Al       5.72756493       3.30681115      20.33826859  F        3
Al       8.59134739       3.30681115      20.33826859  F        3
Al      11.45512986       3.30681115      20.33826859  F        3
Al       4.29567370       5.78691952      20.33826859  F        3
Al       7.15945616       5.78691952      20.33826859  F        3
Al      10.02323862       5.78691952      20.33826859  F        3
Al      12.88702109       5.78691952      20.33826859  F        3
Al       5.72756493       8.26702788      20.33826859  F        3
Al       8.59134739       8.26702788      20.33826859  F        3
Al      11.45512986       8.26702788      20.33826859  F        3
Al      14.31891232       8.26702788      20.33826859  F        3
Al      -0.00000000       1.65340558      22.67653718  T        2
Al       2.86378246       1.65340558      22.67653718  T        2
Al       5.72756493       1.65340558      22.67653718  T        2
Al       8.59134739       1.65340558      22.67653718  T        2
Al       1.43189123       4.13351394      22.67653718  T        2
Al       4.29567370       4.13351394      22.67653718  T        2
Al       7.15945616       4.13351394      22.67653718  T        2
Al      10.02323862       4.13351394      22.67653718  T        2
Al       2.86378246       6.61362231      22.67653718  T        2
Al       5.72756493       6.61362231      22.67653718  T        2
Al       8.59134739       6.61362231      22.67653718  T        2
Al      11.45512986       6.61362231      22.67653718  T        2
Al       4.29567370       9.09373067      22.67653718  T        2
Al       7.15945616       9.09373067      22.67653718  T        2
Al      10.02323862       9.09373067      22.67653718  T        2
Al      12.88702109       9.09373067      22.67653718  T        2
Al       0.00000000       0.00000000      25.01480577  T        1
Al       2.86378246       0.00000000      25.01480577  T        1
Al       5.72756493       0.00000000      25.01480577  T        1
Al       8.59134739       0.00000000      25.01480577  T        1
Al       1.43189123       2.48010836      25.01480577  T        1
Al       4.29567370       2.48010836      25.01480577  T        1
Al       7.15945616       2.48010836      25.01480577  T        1
Al      10.02323862       2.48010836      25.01480577  T        1
Al       2.86378246       4.96021673      25.01480577  T        1
Al       5.72756493       4.96021673      25.01480577  T        1
Al       8.59134739       4.96021673      25.01480577  T        1
Al      11.45512986       4.96021673      25.01480577  T        1
Al       4.29567370       7.44032509      25.01480577  T        1
Al       7.15945616       7.44032509      25.01480577  T        1
Al      10.02323862       7.44032509      25.01480577  T        1
Al      12.88702109       7.44032509      25.01480577  T        1
O        7.15945616       4.13351394      27.01480577  T        0
H        7.15945616       4.89675294      26.41849677  T        0
H        7.15945616       3.37027494      26.41849677  T        0
67
Lattice="11.45512985522207 0.0 0.0 5.727564927611035 9.92043345827187 0.0 0.0 0.0 43.01480577065395" Properties=species:S:1:pos:R:3:move_mask:L:1:tags:I:1 surface_element=Al miller="_JSON [1, 1, 1]" slab_size="_JSON [4, 4, 4]" vacuum_angstrom=18.0 fixed_layers=2 fixed_atom_indices="_JSON [0, 1, 2, 3, 4, 5, 6, 7, 8, 9, 10, 11, 12, 13, 14, 15, 16, 17, 18, 19, 20, 21, 22, 23, 24, 25, 26, 27, 28, 29, 30, 31]" system_name=al111_h2o adsorbate=H2O site=fcc orientation=dipole_up height_angstrom=2.4 structure_id=f75fe916e9be990c pbc="T T T"
Al       0.00000000       0.00000000      18.00000000  F        4
Al       2.86378246       0.00000000      18.00000000  F        4
Al       5.72756493       0.00000000      18.00000000  F        4
Al       8.59134739       0.00000000      18.00000000  F        4
Al       1.43189123       2.48010836      18.00000000  F        4
Al       4.29567370       2.48010836      18.00000000  F        4
Al       7.15945616       2.48010836      18.00000000  F        4
Al      10.02323862       2.48010836      18.00000000  F        4
Al       2.86378246       4.96021673      18.00000000  F        4
Al       5.72756493       4.96021673      18.00000000  F        4
Al       8.59134739       4.96021673      18.00000000  F        4
Al      11.45512986       4.96021673      18.00000000  F        4
Al       4.29567370       7.44032509      18.00000000  F        4
Al       7.15945616       7.44032509      18.00000000  F        4
Al      10.02323862       7.44032509      18.00000000  F        4
Al      12.88702109       7.44032509      18.00000000  F        4
Al       1.43189123       0.82670279      20.33826859  F        3
Al       4.29567370       0.82670279      20.33826859  F        3
Al       7.15945616       0.82670279      20.33826859  F        3
Al      10.02323862       0.82670279      20.33826859  F        3
Al       2.86378246       3.30681115      20.33826859  F        3
Al       5.72756493       3.30681115      20.33826859  F        3
Al       8.59134739       3.30681115      20.33826859  F        3
Al      11.45512986       3.30681115      20.33826859  F        3
Al       4.29567370       5.78691952      20.33826859  F        3
Al       7.15945616       5.78691952      20.33826859  F        3
Al      10.02323862       5.78691952      20.33826859  F        3
Al      12.88702109       5.78691952      20.33826859  F        3
Al       5.72756493       8.26702788      20.33826859  F        3
Al       8.59134739       8.26702788      20.33826859  F        3
Al      11.45512986       8.26702788      20.33826859  F        3
Al      14.31891232       8.26702788      20.33826859  F        3
Al      -0.00000000       1.65340558      22.67653718  T        2
Al       2.86378246       1.65340558      22.67653718  T        2
Al       5.72756493       1.65340558      22.67653718  T        2
Al       8.59134739       1.65340558      22.67653718  T        2
Al       1.43189123       4.13351394      22.67653718  T        2
Al       4.29567370       4.13351394      22.67653718  T        2
Al       7.15945616       4.13351394      22.67653718  T        2
Al      10.02323862       4.13351394      22.67653718  T        2
Al       2.86378246       6.61362231      22.67653718  T        2
Al       5.72756493       6.61362231      22.67653718  T        2
Al       8.59134739       6.61362231      22.67653718  T        2
Al      11.45512986       6.61362231      22.67653718  T        2
Al       4.29567370       9.09373067      22.67653718  T        2
Al       7.15945616       9.09373067      22.67653718  T        2
Al      10.02323862       9.09373067      22.67653718  T        2
Al      12.88702109       9.09373067      22.67653718  T        2
Al       0.00000000       0.00000000      25.01480577  T        1
Al       2.86378246       0.00000000      25.01480577  T        1
Al       5.72756493       0.00000000      25.01480577  T        1
Al       8.59134739       0.00000000      25.01480577  T        1
Al       1.43189123       2.48010836      25.01480577  T        1
Al       4.29567370       2.48010836      25.01480577  T        1
Al       7.15945616       2.48010836      25.01480577  T        1
Al      10.02323862       2.48010836      25.01480577  T        1
Al       2.86378246       4.96021673      25.01480577  T        1
Al       5.72756493       4.96021673      25.01480577  T        1
Al       8.59134739       4.96021673      25.01480577  T        1
Al      11.45512986       4.96021673      25.01480577  T        1
Al       4.29567370       7.44032509      25.01480577  T        1
Al       7.15945616       7.44032509      25.01480577  T        1
Al      10.02323862       7.44032509      25.01480577  T        1
Al      12.88702109       7.44032509      25.01480577  T        1
O        7.15945616       4.13351394      27.41480577  T        0
H        7.15945616       4.89675294      26.81849677  T        0
H        7.15945616       3.37027494      26.81849677  T        0
67
Lattice="11.45512985522207 0.0 0.0 5.727564927611035 9.92043345827187 0.0 0.0 0.0 43.01480577065395" Properties=species:S:1:pos:R:3:move_mask:L:1:tags:I:1 surface_element=Al miller="_JSON [1, 1, 1]" slab_size="_JSON [4, 4, 4]" vacuum_angstrom=18.0 fixed_layers=2 fixed_atom_indices="_JSON [0, 1, 2, 3, 4, 5, 6, 7, 8, 9, 10, 11, 12, 13, 14, 15, 16, 17, 18, 19, 20, 21, 22, 23, 24, 25, 26, 27, 28, 29, 30, 31]" system_name=al111_h2o adsorbate=H2O site=fcc orientation=dipole_up height_angstrom=2.8 structure_id=23aa89292b9ba2cb pbc="T T T"
Al       0.00000000       0.00000000      18.00000000  F        4
Al       2.86378246       0.00000000      18.00000000  F        4
Al       5.72756493       0.00000000      18.00000000  F        4
Al       8.59134739       0.00000000      18.00000000  F        4
Al       1.43189123       2.48010836      18.00000000  F        4
Al       4.29567370       2.48010836      18.00000000  F        4
Al       7.15945616       2.48010836      18.00000000  F        4
Al      10.02323862       2.48010836      18.00000000  F        4
Al       2.86378246       4.96021673      18.00000000  F        4
Al       5.72756493       4.96021673      18.00000000  F        4
Al       8.59134739       4.96021673      18.00000000  F        4
Al      11.45512986       4.96021673      18.00000000  F        4
Al       4.29567370       7.44032509      18.00000000  F        4
Al       7.15945616       7.44032509      18.00000000  F        4
Al      10.02323862       7.44032509      18.00000000  F        4
Al      12.88702109       7.44032509      18.00000000  F        4
Al       1.43189123       0.82670279      20.33826859  F        3
Al       4.29567370       0.82670279      20.33826859  F        3
Al       7.15945616       0.82670279      20.33826859  F        3
Al      10.02323862       0.82670279      20.33826859  F        3
Al       2.86378246       3.30681115      20.33826859  F        3
Al       5.72756493       3.30681115      20.33826859  F        3
Al       8.59134739       3.30681115      20.33826859  F        3
Al      11.45512986       3.30681115      20.33826859  F        3
Al       4.29567370       5.78691952      20.33826859  F        3
Al       7.15945616       5.78691952      20.33826859  F        3
Al      10.02323862       5.78691952      20.33826859  F        3
Al      12.88702109       5.78691952      20.33826859  F        3
Al       5.72756493       8.26702788      20.33826859  F        3
Al       8.59134739       8.26702788      20.33826859  F        3
Al      11.45512986       8.26702788      20.33826859  F        3
Al      14.31891232       8.26702788      20.33826859  F        3
Al      -0.00000000       1.65340558      22.67653718  T        2
Al       2.86378246       1.65340558      22.67653718  T        2
Al       5.72756493       1.65340558      22.67653718  T        2
Al       8.59134739       1.65340558      22.67653718  T        2
Al       1.43189123       4.13351394      22.67653718  T        2
Al       4.29567370       4.13351394      22.67653718  T        2
Al       7.15945616       4.13351394      22.67653718  T        2
Al      10.02323862       4.13351394      22.67653718  T        2
Al       2.86378246       6.61362231      22.67653718  T        2
Al       5.72756493       6.61362231      22.67653718  T        2
Al       8.59134739       6.61362231      22.67653718  T        2
Al      11.45512986       6.61362231      22.67653718  T        2
Al       4.29567370       9.09373067      22.67653718  T        2
Al       7.15945616       9.09373067      22.67653718  T        2
Al      10.02323862       9.09373067      22.67653718  T        2
Al      12.88702109       9.09373067      22.67653718  T        2
Al       0.00000000       0.00000000      25.01480577  T        1
Al       2.86378246       0.00000000      25.01480577  T        1
Al       5.72756493       0.00000000      25.01480577  T        1
Al       8.59134739       0.00000000      25.01480577  T        1
Al       1.43189123       2.48010836      25.01480577  T        1
Al       4.29567370       2.48010836      25.01480577  T        1
Al       7.15945616       2.48010836      25.01480577  T        1
Al      10.02323862       2.48010836      25.01480577  T        1
Al       2.86378246       4.96021673      25.01480577  T        1
Al       5.72756493       4.96021673      25.01480577  T        1
Al       8.59134739       4.96021673      25.01480577  T        1
Al      11.45512986       4.96021673      25.01480577  T        1
Al       4.29567370       7.44032509      25.01480577  T        1
Al       7.15945616       7.44032509      25.01480577  T        1
Al      10.02323862       7.44032509      25.01480577  T        1
Al      12.88702109       7.44032509      25.01480577  T        1
O        7.15945616       4.13351394      27.81480577  T        0
H        7.15945616       4.89675294      27.21849677  T        0
H        7.15945616       3.37027494      27.21849677  T        0
67
Lattice="11.45512985522207 0.0 0.0 5.727564927611035 9.92043345827187 0.0 0.0 0.0 43.01480577065395" Properties=species:S:1:pos:R:3:move_mask:L:1:tags:I:1 surface_element=Al miller="_JSON [1, 1, 1]" slab_size="_JSON [4, 4, 4]" vacuum_angstrom=18.0 fixed_layers=2 fixed_atom_indices="_JSON [0, 1, 2, 3, 4, 5, 6, 7, 8, 9, 10, 11, 12, 13, 14, 15, 16, 17, 18, 19, 20, 21, 22, 23, 24, 25, 26, 27, 28, 29, 30, 31]" system_name=al111_h2o adsorbate=H2O site=fcc orientation=dipole_up height_angstrom=3.2 structure_id=b6bae7dcda3bbe01 pbc="T T T"
Al       0.00000000       0.00000000      18.00000000  F        4
Al       2.86378246       0.00000000      18.00000000  F        4
Al       5.72756493       0.00000000      18.00000000  F        4
Al       8.59134739       0.00000000      18.00000000  F        4
Al       1.43189123       2.48010836      18.00000000  F        4
Al       4.29567370       2.48010836      18.00000000  F        4
Al       7.15945616       2.48010836      18.00000000  F        4
Al      10.02323862       2.48010836      18.00000000  F        4
Al       2.86378246       4.96021673      18.00000000  F        4
Al       5.72756493       4.96021673      18.00000000  F        4
Al       8.59134739       4.96021673      18.00000000  F        4
Al      11.45512986       4.96021673      18.00000000  F        4
Al       4.29567370       7.44032509      18.00000000  F        4
Al       7.15945616       7.44032509      18.00000000  F        4
Al      10.02323862       7.44032509      18.00000000  F        4
Al      12.88702109       7.44032509      18.00000000  F        4
Al       1.43189123       0.82670279      20.33826859  F        3
Al       4.29567370       0.82670279      20.33826859  F        3
Al       7.15945616       0.82670279      20.33826859  F        3
Al      10.02323862       0.82670279      20.33826859  F        3
Al       2.86378246       3.30681115      20.33826859  F        3
Al       5.72756493       3.30681115      20.33826859  F        3
Al       8.59134739       3.30681115      20.33826859  F        3
Al      11.45512986       3.30681115      20.33826859  F        3
Al       4.29567370       5.78691952      20.33826859  F        3
Al       7.15945616       5.78691952      20.33826859  F        3
Al      10.02323862       5.78691952      20.33826859  F        3
Al      12.88702109       5.78691952      20.33826859  F        3
Al       5.72756493       8.26702788      20.33826859  F        3
Al       8.59134739       8.26702788      20.33826859  F        3
Al      11.45512986       8.26702788      20.33826859  F        3
Al      14.31891232       8.26702788      20.33826859  F        3
Al      -0.00000000       1.65340558      22.67653718  T        2
Al       2.86378246       1.65340558      22.67653718  T        2
Al       5.72756493       1.65340558      22.67653718  T        2
Al       8.59134739       1.65340558      22.67653718  T        2
Al       1.43189123       4.13351394      22.67653718  T        2
Al       4.29567370       4.13351394      22.67653718  T        2
Al       7.15945616       4.13351394      22.67653718  T        2
Al      10.02323862       4.13351394      22.67653718  T        2
Al       2.86378246       6.61362231      22.67653718  T        2
Al       5.72756493       6.61362231      22.67653718  T        2
Al       8.59134739       6.61362231      22.67653718  T        2
Al      11.45512986       6.61362231      22.67653718  T        2
Al       4.29567370       9.09373067      22.67653718  T        2
Al       7.15945616       9.09373067      22.67653718  T        2
Al      10.02323862       9.09373067      22.67653718  T        2
Al      12.88702109       9.09373067      22.67653718  T        2
Al       0.00000000       0.00000000      25.01480577  T        1
Al       2.86378246       0.00000000      25.01480577  T        1
Al       5.72756493       0.00000000      25.01480577  T        1
Al       8.59134739       0.00000000      25.01480577  T        1
Al       1.43189123       2.48010836      25.01480577  T        1
Al       4.29567370       2.48010836      25.01480577  T        1
Al       7.15945616       2.48010836      25.01480577  T        1
Al      10.02323862       2.48010836      25.01480577  T        1
Al       2.86378246       4.96021673      25.01480577  T        1
Al       5.72756493       4.96021673      25.01480577  T        1
Al       8.59134739       4.96021673      25.01480577  T        1
Al      11.45512986       4.96021673      25.01480577  T        1
Al       4.29567370       7.44032509      25.01480577  T        1
Al       7.15945616       7.44032509      25.01480577  T        1
Al      10.02323862       7.44032509      25.01480577  T        1
Al      12.88702109       7.44032509      25.01480577  T        1
O        7.15945616       4.13351394      28.21480577  T        0
H        7.15945616       4.89675294      27.61849677  T        0
H        7.15945616       3.37027494      27.61849677  T        0
67
Lattice="11.45512985522207 0.0 0.0 5.727564927611035 9.92043345827187 0.0 0.0 0.0 43.01480577065395" Properties=species:S:1:pos:R:3:move_mask:L:1:tags:I:1 surface_element=Al miller="_JSON [1, 1, 1]" slab_size="_JSON [4, 4, 4]" vacuum_angstrom=18.0 fixed_layers=2 fixed_atom_indices="_JSON [0, 1, 2, 3, 4, 5, 6, 7, 8, 9, 10, 11, 12, 13, 14, 15, 16, 17, 18, 19, 20, 21, 22, 23, 24, 25, 26, 27, 28, 29, 30, 31]" system_name=al111_h2o adsorbate=H2O site=fcc orientation=flat height_angstrom=2.0 structure_id=8e17214a151b62c2 pbc="T T T"
Al       0.00000000       0.00000000      18.00000000  F        4
Al       2.86378246       0.00000000      18.00000000  F        4
Al       5.72756493       0.00000000      18.00000000  F        4
Al       8.59134739       0.00000000      18.00000000  F        4
Al       1.43189123       2.48010836      18.00000000  F        4
Al       4.29567370       2.48010836      18.00000000  F        4
Al       7.15945616       2.48010836      18.00000000  F        4
Al      10.02323862       2.48010836      18.00000000  F        4
Al       2.86378246       4.96021673      18.00000000  F        4
Al       5.72756493       4.96021673      18.00000000  F        4
Al       8.59134739       4.96021673      18.00000000  F        4
Al      11.45512986       4.96021673      18.00000000  F        4
Al       4.29567370       7.44032509      18.00000000  F        4
Al       7.15945616       7.44032509      18.00000000  F        4
Al      10.02323862       7.44032509      18.00000000  F        4
Al      12.88702109       7.44032509      18.00000000  F        4
Al       1.43189123       0.82670279      20.33826859  F        3
Al       4.29567370       0.82670279      20.33826859  F        3
Al       7.15945616       0.82670279      20.33826859  F        3
Al      10.02323862       0.82670279      20.33826859  F        3
Al       2.86378246       3.30681115      20.33826859  F        3
Al       5.72756493       3.30681115      20.33826859  F        3
Al       8.59134739       3.30681115      20.33826859  F        3
Al      11.45512986       3.30681115      20.33826859  F        3
Al       4.29567370       5.78691952      20.33826859  F        3
Al       7.15945616       5.78691952      20.33826859  F        3
Al      10.02323862       5.78691952      20.33826859  F        3
Al      12.88702109       5.78691952      20.33826859  F        3
Al       5.72756493       8.26702788      20.33826859  F        3
Al       8.59134739       8.26702788      20.33826859  F        3
Al      11.45512986       8.26702788      20.33826859  F        3
Al      14.31891232       8.26702788      20.33826859  F        3
Al      -0.00000000       1.65340558      22.67653718  T        2
Al       2.86378246       1.65340558      22.67653718  T        2
Al       5.72756493       1.65340558      22.67653718  T        2
Al       8.59134739       1.65340558      22.67653718  T        2
Al       1.43189123       4.13351394      22.67653718  T        2
Al       4.29567370       4.13351394      22.67653718  T        2
Al       7.15945616       4.13351394      22.67653718  T        2
Al      10.02323862       4.13351394      22.67653718  T        2
Al       2.86378246       6.61362231      22.67653718  T        2
Al       5.72756493       6.61362231      22.67653718  T        2
Al       8.59134739       6.61362231      22.67653718  T        2
Al      11.45512986       6.61362231      22.67653718  T        2
Al       4.29567370       9.09373067      22.67653718  T        2
Al       7.15945616       9.09373067      22.67653718  T        2
Al      10.02323862       9.09373067      22.67653718  T        2
Al      12.88702109       9.09373067      22.67653718  T        2
Al       0.00000000       0.00000000      25.01480577  T        1
Al       2.86378246       0.00000000      25.01480577  T        1
Al       5.72756493       0.00000000      25.01480577  T        1
Al       8.59134739       0.00000000      25.01480577  T        1
Al       1.43189123       2.48010836      25.01480577  T        1
Al       4.29567370       2.48010836      25.01480577  T        1
Al       7.15945616       2.48010836      25.01480577  T        1
Al      10.02323862       2.48010836      25.01480577  T        1
Al       2.86378246       4.96021673      25.01480577  T        1
Al       5.72756493       4.96021673      25.01480577  T        1
Al       8.59134739       4.96021673      25.01480577  T        1
Al      11.45512986       4.96021673      25.01480577  T        1
Al       4.29567370       7.44032509      25.01480577  T        1
Al       7.15945616       7.44032509      25.01480577  T        1
Al      10.02323862       7.44032509      25.01480577  T        1
Al      12.88702109       7.44032509      25.01480577  T        1
O        7.15945616       4.13351394      27.01480577  T        0
H        6.56314716       4.89675294      27.01480577  T        0
H        6.56314716       3.37027494      27.01480577  T        0
67
Lattice="11.45512985522207 0.0 0.0 5.727564927611035 9.92043345827187 0.0 0.0 0.0 43.01480577065395" Properties=species:S:1:pos:R:3:move_mask:L:1:tags:I:1 surface_element=Al miller="_JSON [1, 1, 1]" slab_size="_JSON [4, 4, 4]" vacuum_angstrom=18.0 fixed_layers=2 fixed_atom_indices="_JSON [0, 1, 2, 3, 4, 5, 6, 7, 8, 9, 10, 11, 12, 13, 14, 15, 16, 17, 18, 19, 20, 21, 22, 23, 24, 25, 26, 27, 28, 29, 30, 31]" system_name=al111_h2o adsorbate=H2O site=fcc orientation=flat height_angstrom=2.4 structure_id=f09c853db1f9aeb6 pbc="T T T"
Al       0.00000000       0.00000000      18.00000000  F        4
Al       2.86378246       0.00000000      18.00000000  F        4
Al       5.72756493       0.00000000      18.00000000  F        4
Al       8.59134739       0.00000000      18.00000000  F        4
Al       1.43189123       2.48010836      18.00000000  F        4
Al       4.29567370       2.48010836      18.00000000  F        4
Al       7.15945616       2.48010836      18.00000000  F        4
Al      10.02323862       2.48010836      18.00000000  F        4
Al       2.86378246       4.96021673      18.00000000  F        4
Al       5.72756493       4.96021673      18.00000000  F        4
Al       8.59134739       4.96021673      18.00000000  F        4
Al      11.45512986       4.96021673      18.00000000  F        4
Al       4.29567370       7.44032509      18.00000000  F        4
Al       7.15945616       7.44032509      18.00000000  F        4
Al      10.02323862       7.44032509      18.00000000  F        4
Al      12.88702109       7.44032509      18.00000000  F        4
Al       1.43189123       0.82670279      20.33826859  F        3
Al       4.29567370       0.82670279      20.33826859  F        3
Al       7.15945616       0.82670279      20.33826859  F        3
Al      10.02323862       0.82670279      20.33826859  F        3
Al       2.86378246       3.30681115      20.33826859  F        3
Al       5.72756493       3.30681115      20.33826859  F        3
Al       8.59134739       3.30681115      20.33826859  F        3
Al      11.45512986       3.30681115      20.33826859  F        3
Al       4.29567370       5.78691952      20.33826859  F        3
Al       7.15945616       5.78691952      20.33826859  F        3
Al      10.02323862       5.78691952      20.33826859  F        3
Al      12.88702109       5.78691952      20.33826859  F        3
Al       5.72756493       8.26702788      20.33826859  F        3
Al       8.59134739       8.26702788      20.33826859  F        3
Al      11.45512986       8.26702788      20.33826859  F        3
Al      14.31891232       8.26702788      20.33826859  F        3
Al      -0.00000000       1.65340558      22.67653718  T        2
Al       2.86378246       1.65340558      22.67653718  T        2
Al       5.72756493       1.65340558      22.67653718  T        2
Al       8.59134739       1.65340558      22.67653718  T        2
Al       1.43189123       4.13351394      22.67653718  T        2
Al       4.29567370       4.13351394      22.67653718  T        2
Al       7.15945616       4.13351394      22.67653718  T        2
Al      10.02323862       4.13351394      22.67653718  T        2
Al       2.86378246       6.61362231      22.67653718  T        2
Al       5.72756493       6.61362231      22.67653718  T        2
Al       8.59134739       6.61362231      22.67653718  T        2
Al      11.45512986       6.61362231      22.67653718  T        2
Al       4.29567370       9.09373067      22.67653718  T        2
Al       7.15945616       9.09373067      22.67653718  T        2
Al      10.02323862       9.09373067      22.67653718  T        2
Al      12.88702109       9.09373067      22.67653718  T        2
Al       0.00000000       0.00000000      25.01480577  T        1
Al       2.86378246       0.00000000      25.01480577  T        1
Al       5.72756493       0.00000000      25.01480577  T        1
Al       8.59134739       0.00000000      25.01480577  T        1
Al       1.43189123       2.48010836      25.01480577  T        1
Al       4.29567370       2.48010836      25.01480577  T        1
Al       7.15945616       2.48010836      25.01480577  T        1
Al      10.02323862       2.48010836      25.01480577  T        1
Al       2.86378246       4.96021673      25.01480577  T        1
Al       5.72756493       4.96021673      25.01480577  T        1
Al       8.59134739       4.96021673      25.01480577  T        1
Al      11.45512986       4.96021673      25.01480577  T        1
Al       4.29567370       7.44032509      25.01480577  T        1
Al       7.15945616       7.44032509      25.01480577  T        1
Al      10.02323862       7.44032509      25.01480577  T        1
Al      12.88702109       7.44032509      25.01480577  T        1
O        7.15945616       4.13351394      27.41480577  T        0
H        6.56314716       4.89675294      27.41480577  T        0
H        6.56314716       3.37027494      27.41480577  T        0
67
Lattice="11.45512985522207 0.0 0.0 5.727564927611035 9.92043345827187 0.0 0.0 0.0 43.01480577065395" Properties=species:S:1:pos:R:3:move_mask:L:1:tags:I:1 surface_element=Al miller="_JSON [1, 1, 1]" slab_size="_JSON [4, 4, 4]" vacuum_angstrom=18.0 fixed_layers=2 fixed_atom_indices="_JSON [0, 1, 2, 3, 4, 5, 6, 7, 8, 9, 10, 11, 12, 13, 14, 15, 16, 17, 18, 19, 20, 21, 22, 23, 24, 25, 26, 27, 28, 29, 30, 31]" system_name=al111_h2o adsorbate=H2O site=fcc orientation=flat height_angstrom=2.8 structure_id=0dda6364ce68bec2 pbc="T T T"
Al       0.00000000       0.00000000      18.00000000  F        4
Al       2.86378246       0.00000000      18.00000000  F        4
Al       5.72756493       0.00000000      18.00000000  F        4
Al       8.59134739       0.00000000      18.00000000  F        4
Al       1.43189123       2.48010836      18.00000000  F        4
Al       4.29567370       2.48010836      18.00000000  F        4
Al       7.15945616       2.48010836      18.00000000  F        4
Al      10.02323862       2.48010836      18.00000000  F        4
Al       2.86378246       4.96021673      18.00000000  F        4
Al       5.72756493       4.96021673      18.00000000  F        4
Al       8.59134739       4.96021673      18.00000000  F        4
Al      11.45512986       4.96021673      18.00000000  F        4
Al       4.29567370       7.44032509      18.00000000  F        4
Al       7.15945616       7.44032509      18.00000000  F        4
Al      10.02323862       7.44032509      18.00000000  F        4
Al      12.88702109       7.44032509      18.00000000  F        4
Al       1.43189123       0.82670279      20.33826859  F        3
Al       4.29567370       0.82670279      20.33826859  F        3
Al       7.15945616       0.82670279      20.33826859  F        3
Al      10.02323862       0.82670279      20.33826859  F        3
Al       2.86378246       3.30681115      20.33826859  F        3
Al       5.72756493       3.30681115      20.33826859  F        3
Al       8.59134739       3.30681115      20.33826859  F        3
Al      11.45512986       3.30681115      20.33826859  F        3
Al       4.29567370       5.78691952      20.33826859  F        3
Al       7.15945616       5.78691952      20.33826859  F        3
Al      10.02323862       5.78691952      20.33826859  F        3
Al      12.88702109       5.78691952      20.33826859  F        3
Al       5.72756493       8.26702788      20.33826859  F        3
Al       8.59134739       8.26702788      20.33826859  F        3
Al      11.45512986       8.26702788      20.33826859  F        3
Al      14.31891232       8.26702788      20.33826859  F        3
Al      -0.00000000       1.65340558      22.67653718  T        2
Al       2.86378246       1.65340558      22.67653718  T        2
Al       5.72756493       1.65340558      22.67653718  T        2
Al       8.59134739       1.65340558      22.67653718  T        2
Al       1.43189123       4.13351394      22.67653718  T        2
Al       4.29567370       4.13351394      22.67653718  T        2
Al       7.15945616       4.13351394      22.67653718  T        2
Al      10.02323862       4.13351394      22.67653718  T        2
Al       2.86378246       6.61362231      22.67653718  T        2
Al       5.72756493       6.61362231      22.67653718  T        2
Al       8.59134739       6.61362231      22.67653718  T        2
Al      11.45512986       6.61362231      22.67653718  T        2
Al       4.29567370       9.09373067      22.67653718  T        2
Al       7.15945616       9.09373067      22.67653718  T        2
Al      10.02323862       9.09373067      22.67653718  T        2
Al      12.88702109       9.09373067      22.67653718  T        2
Al       0.00000000       0.00000000      25.01480577  T        1
Al       2.86378246       0.00000000      25.01480577  T        1
Al       5.72756493       0.00000000      25.01480577  T        1
Al       8.59134739       0.00000000      25.01480577  T        1
Al       1.43189123       2.48010836      25.01480577  T        1
Al       4.29567370       2.48010836      25.01480577  T        1
Al       7.15945616       2.48010836      25.01480577  T        1
Al      10.02323862       2.48010836      25.01480577  T        1
Al       2.86378246       4.96021673      25.01480577  T        1
Al       5.72756493       4.96021673      25.01480577  T        1
Al       8.59134739       4.96021673      25.01480577  T        1
Al      11.45512986       4.96021673      25.01480577  T        1
Al       4.29567370       7.44032509      25.01480577  T        1
Al       7.15945616       7.44032509      25.01480577  T        1
Al      10.02323862       7.44032509      25.01480577  T        1
Al      12.88702109       7.44032509      25.01480577  T        1
O        7.15945616       4.13351394      27.81480577  T        0
H        6.56314716       4.89675294      27.81480577  T        0
H        6.56314716       3.37027494      27.81480577  T        0
67
Lattice="11.45512985522207 0.0 0.0 5.727564927611035 9.92043345827187 0.0 0.0 0.0 43.01480577065395" Properties=species:S:1:pos:R:3:move_mask:L:1:tags:I:1 surface_element=Al miller="_JSON [1, 1, 1]" slab_size="_JSON [4, 4, 4]" vacuum_angstrom=18.0 fixed_layers=2 fixed_atom_indices="_JSON [0, 1, 2, 3, 4, 5, 6, 7, 8, 9, 10, 11, 12, 13, 14, 15, 16, 17, 18, 19, 20, 21, 22, 23, 24, 25, 26, 27, 28, 29, 30, 31]" system_name=al111_h2o adsorbate=H2O site=fcc orientation=flat height_angstrom=3.2 structure_id=efe72b07adba9cf7 pbc="T T T"
Al       0.00000000       0.00000000      18.00000000  F        4
Al       2.86378246       0.00000000      18.00000000  F        4
Al       5.72756493       0.00000000      18.00000000  F        4
Al       8.59134739       0.00000000      18.00000000  F        4
Al       1.43189123       2.48010836      18.00000000  F        4
Al       4.29567370       2.48010836      18.00000000  F        4
Al       7.15945616       2.48010836      18.00000000  F        4
Al      10.02323862       2.48010836      18.00000000  F        4
Al       2.86378246       4.96021673      18.00000000  F        4
Al       5.72756493       4.96021673      18.00000000  F        4
Al       8.59134739       4.96021673      18.00000000  F        4
Al      11.45512986       4.96021673      18.00000000  F        4
Al       4.29567370       7.44032509      18.00000000  F        4
Al       7.15945616       7.44032509      18.00000000  F        4
Al      10.02323862       7.44032509      18.00000000  F        4
Al      12.88702109       7.44032509      18.00000000  F        4
Al       1.43189123       0.82670279      20.33826859  F        3
Al       4.29567370       0.82670279      20.33826859  F        3
Al       7.15945616       0.82670279      20.33826859  F        3
Al      10.02323862       0.82670279      20.33826859  F        3
Al       2.86378246       3.30681115      20.33826859  F        3
Al       5.72756493       3.30681115      20.33826859  F        3
Al       8.59134739       3.30681115      20.33826859  F        3
Al      11.45512986       3.30681115      20.33826859  F        3
Al       4.29567370       5.78691952      20.33826859  F        3
Al       7.15945616       5.78691952      20.33826859  F        3
Al      10.02323862       5.78691952      20.33826859  F        3
Al      12.88702109       5.78691952      20.33826859  F        3
Al       5.72756493       8.26702788      20.33826859  F        3
Al       8.59134739       8.26702788      20.33826859  F        3
Al      11.45512986       8.26702788      20.33826859  F        3
Al      14.31891232       8.26702788      20.33826859  F        3
Al      -0.00000000       1.65340558      22.67653718  T        2
Al       2.86378246       1.65340558      22.67653718  T        2
Al       5.72756493       1.65340558      22.67653718  T        2
Al       8.59134739       1.65340558      22.67653718  T        2
Al       1.43189123       4.13351394      22.67653718  T        2
Al       4.29567370       4.13351394      22.67653718  T        2
Al       7.15945616       4.13351394      22.67653718  T        2
Al      10.02323862       4.13351394      22.67653718  T        2
Al       2.86378246       6.61362231      22.67653718  T        2
Al       5.72756493       6.61362231      22.67653718  T        2
Al       8.59134739       6.61362231      22.67653718  T        2
Al      11.45512986       6.61362231      22.67653718  T        2
Al       4.29567370       9.09373067      22.67653718  T        2
Al       7.15945616       9.09373067      22.67653718  T        2
Al      10.02323862       9.09373067      22.67653718  T        2
Al      12.88702109       9.09373067      22.67653718  T        2
Al       0.00000000       0.00000000      25.01480577  T        1
Al       2.86378246       0.00000000      25.01480577  T        1
Al       5.72756493       0.00000000      25.01480577  T        1
Al       8.59134739       0.00000000      25.01480577  T        1
Al       1.43189123       2.48010836      25.01480577  T        1
Al       4.29567370       2.48010836      25.01480577  T        1
Al       7.15945616       2.48010836      25.01480577  T        1
Al      10.02323862       2.48010836      25.01480577  T        1
Al       2.86378246       4.96021673      25.01480577  T        1
Al       5.72756493       4.96021673      25.01480577  T        1
Al       8.59134739       4.96021673      25.01480577  T        1
Al      11.45512986       4.96021673      25.01480577  T        1
Al       4.29567370       7.44032509      25.01480577  T        1
Al       7.15945616       7.44032509      25.01480577  T        1
Al      10.02323862       7.44032509      25.01480577  T        1
Al      12.88702109       7.44032509      25.01480577  T        1
O        7.15945616       4.13351394      28.21480577  T        0
H        6.56314716       4.89675294      28.21480577  T        0
H        6.56314716       3.37027494      28.21480577  T        0
67
Lattice="11.45512985522207 0.0 0.0 5.727564927611035 9.92043345827187 0.0 0.0 0.0 43.01480577065395" Properties=species:S:1:pos:R:3:move_mask:L:1:tags:I:1 surface_element=Al miller="_JSON [1, 1, 1]" slab_size="_JSON [4, 4, 4]" vacuum_angstrom=18.0 fixed_layers=2 fixed_atom_indices="_JSON [0, 1, 2, 3, 4, 5, 6, 7, 8, 9, 10, 11, 12, 13, 14, 15, 16, 17, 18, 19, 20, 21, 22, 23, 24, 25, 26, 27, 28, 29, 30, 31]" system_name=al111_h2o adsorbate=H2O site=hcp orientation=dipole_down height_angstrom=2.0 structure_id=4f21ed12b11ab159 pbc="T T T"
Al       0.00000000       0.00000000      18.00000000  F        4
Al       2.86378246       0.00000000      18.00000000  F        4
Al       5.72756493       0.00000000      18.00000000  F        4
Al       8.59134739       0.00000000      18.00000000  F        4
Al       1.43189123       2.48010836      18.00000000  F        4
Al       4.29567370       2.48010836      18.00000000  F        4
Al       7.15945616       2.48010836      18.00000000  F        4
Al      10.02323862       2.48010836      18.00000000  F        4
Al       2.86378246       4.96021673      18.00000000  F        4
Al       5.72756493       4.96021673      18.00000000  F        4
Al       8.59134739       4.96021673      18.00000000  F        4
Al      11.45512986       4.96021673      18.00000000  F        4
Al       4.29567370       7.44032509      18.00000000  F        4
Al       7.15945616       7.44032509      18.00000000  F        4
Al      10.02323862       7.44032509      18.00000000  F        4
Al      12.88702109       7.44032509      18.00000000  F        4
Al       1.43189123       0.82670279      20.33826859  F        3
Al       4.29567370       0.82670279      20.33826859  F        3
Al       7.15945616       0.82670279      20.33826859  F        3
Al      10.02323862       0.82670279      20.33826859  F        3
Al       2.86378246       3.30681115      20.33826859  F        3
Al       5.72756493       3.30681115      20.33826859  F        3
Al       8.59134739       3.30681115      20.33826859  F        3
Al      11.45512986       3.30681115      20.33826859  F        3
Al       4.29567370       5.78691952      20.33826859  F        3
Al       7.15945616       5.78691952      20.33826859  F        3
Al      10.02323862       5.78691952      20.33826859  F        3
Al      12.88702109       5.78691952      20.33826859  F        3
Al       5.72756493       8.26702788      20.33826859  F        3
Al       8.59134739       8.26702788      20.33826859  F        3
Al      11.45512986       8.26702788      20.33826859  F        3
Al      14.31891232       8.26702788      20.33826859  F        3
Al      -0.00000000       1.65340558      22.67653718  T        2
Al       2.86378246       1.65340558      22.67653718  T        2
Al       5.72756493       1.65340558      22.67653718  T        2
Al       8.59134739       1.65340558      22.67653718  T        2
Al       1.43189123       4.13351394      22.67653718  T        2
Al       4.29567370       4.13351394      22.67653718  T        2
Al       7.15945616       4.13351394      22.67653718  T        2
Al      10.02323862       4.13351394      22.67653718  T        2
Al       2.86378246       6.61362231      22.67653718  T        2
Al       5.72756493       6.61362231      22.67653718  T        2
Al       8.59134739       6.61362231      22.67653718  T        2
Al      11.45512986       6.61362231      22.67653718  T        2
Al       4.29567370       9.09373067      22.67653718  T        2
Al       7.15945616       9.09373067      22.67653718  T        2
Al      10.02323862       9.09373067      22.67653718  T        2
Al      12.88702109       9.09373067      22.67653718  T        2
Al       0.00000000       0.00000000      25.01480577  T        1
Al       2.86378246       0.00000000      25.01480577  T        1
Al       5.72756493       0.00000000      25.01480577  T        1
Al       8.59134739       0.00000000      25.01480577  T        1
Al       1.43189123       2.48010836      25.01480577  T        1
Al       4.29567370       2.48010836      25.01480577  T        1
Al       7.15945616       2.48010836      25.01480577  T        1
Al      10.02323862       2.48010836      25.01480577  T        1
Al       2.86378246       4.96021673      25.01480577  T        1
Al       5.72756493       4.96021673      25.01480577  T        1
Al       8.59134739       4.96021673      25.01480577  T        1
Al      11.45512986       4.96021673      25.01480577  T        1
Al       4.29567370       7.44032509      25.01480577  T        1
Al       7.15945616       7.44032509      25.01480577  T        1
Al      10.02323862       7.44032509      25.01480577  T        1
Al      12.88702109       7.44032509      25.01480577  T        1
O        6.68215908       3.30681115      27.01480577  T        0
H        6.68215908       2.54357215      27.61111477  T        0
H        6.68215908       4.07005015      27.61111477  T        0
67
Lattice="11.45512985522207 0.0 0.0 5.727564927611035 9.92043345827187 0.0 0.0 0.0 43.01480577065395" Properties=species:S:1:pos:R:3:move_mask:L:1:tags:I:1 surface_element=Al miller="_JSON [1, 1, 1]" slab_size="_JSON [4, 4, 4]" vacuum_angstrom=18.0 fixed_layers=2 fixed_atom_indices="_JSON [0, 1, 2, 3, 4, 5, 6, 7, 8, 9, 10, 11, 12, 13, 14, 15, 16, 17, 18, 19, 20, 21, 22, 23, 24, 25, 26, 27, 28, 29, 30, 31]" system_name=al111_h2o adsorbate=H2O site=hcp orientation=dipole_down height_angstrom=2.4 structure_id=97a8503e75637736 pbc="T T T"
Al       0.00000000       0.00000000      18.00000000  F        4
Al       2.86378246       0.00000000      18.00000000  F        4
Al       5.72756493       0.00000000      18.00000000  F        4
Al       8.59134739       0.00000000      18.00000000  F        4
Al       1.43189123       2.48010836      18.00000000  F        4
Al       4.29567370       2.48010836      18.00000000  F        4
Al       7.15945616       2.48010836      18.00000000  F        4
Al      10.02323862       2.48010836      18.00000000  F        4
Al       2.86378246       4.96021673      18.00000000  F        4
Al       5.72756493       4.96021673      18.00000000  F        4
Al       8.59134739       4.96021673      18.00000000  F        4
Al      11.45512986       4.96021673      18.00000000  F        4
Al       4.29567370       7.44032509      18.00000000  F        4
Al       7.15945616       7.44032509      18.00000000  F        4
Al      10.02323862       7.44032509      18.00000000  F        4
Al      12.88702109       7.44032509      18.00000000  F        4
Al       1.43189123       0.82670279      20.33826859  F        3
Al       4.29567370       0.82670279      20.33826859  F        3
Al       7.15945616       0.82670279      20.33826859  F        3
Al      10.02323862       0.82670279      20.33826859  F        3
Al       2.86378246       3.30681115      20.33826859  F        3
Al       5.72756493       3.30681115      20.33826859  F        3
Al       8.59134739       3.30681115      20.33826859  F        3
Al      11.45512986       3.30681115      20.33826859  F        3
Al       4.29567370       5.78691952      20.33826859  F        3
Al       7.15945616       5.78691952      20.33826859  F        3
Al      10.02323862       5.78691952      20.33826859  F        3
Al      12.88702109       5.78691952      20.33826859  F        3
Al       5.72756493       8.26702788      20.33826859  F        3
Al       8.59134739       8.26702788      20.33826859  F        3
Al      11.45512986       8.26702788      20.33826859  F        3
Al      14.31891232       8.26702788      20.33826859  F        3
Al      -0.00000000       1.65340558      22.67653718  T        2
Al       2.86378246       1.65340558      22.67653718  T        2
Al       5.72756493       1.65340558      22.67653718  T        2
Al       8.59134739       1.65340558      22.67653718  T        2
Al       1.43189123       4.13351394      22.67653718  T        2
Al       4.29567370       4.13351394      22.67653718  T        2
Al       7.15945616       4.13351394      22.67653718  T        2
Al      10.02323862       4.13351394      22.67653718  T        2
Al       2.86378246       6.61362231      22.67653718  T        2
Al       5.72756493       6.61362231      22.67653718  T        2
Al       8.59134739       6.61362231      22.67653718  T        2
Al      11.45512986       6.61362231      22.67653718  T        2
Al       4.29567370       9.09373067      22.67653718  T        2
Al       7.15945616       9.09373067      22.67653718  T        2
Al      10.02323862       9.09373067      22.67653718  T        2
Al      12.88702109       9.09373067      22.67653718  T        2
Al       0.00000000       0.00000000      25.01480577  T        1
Al       2.86378246       0.00000000      25.01480577  T        1
Al       5.72756493       0.00000000      25.01480577  T        1
Al       8.59134739       0.00000000      25.01480577  T        1
Al       1.43189123       2.48010836      25.01480577  T        1
Al       4.29567370       2.48010836      25.01480577  T        1
Al       7.15945616       2.48010836      25.01480577  T        1
Al      10.02323862       2.48010836      25.01480577  T        1
Al       2.86378246       4.96021673      25.01480577  T        1
Al       5.72756493       4.96021673      25.01480577  T        1
Al       8.59134739       4.96021673      25.01480577  T        1
Al      11.45512986       4.96021673      25.01480577  T        1
Al       4.29567370       7.44032509      25.01480577  T        1
Al       7.15945616       7.44032509      25.01480577  T        1
Al      10.02323862       7.44032509      25.01480577  T        1
Al      12.88702109       7.44032509      25.01480577  T        1
O        6.68215908       3.30681115      27.41480577  T        0
H        6.68215908       2.54357215      28.01111477  T        0
H        6.68215908       4.07005015      28.01111477  T        0
67
Lattice="11.45512985522207 0.0 0.0 5.727564927611035 9.92043345827187 0.0 0.0 0.0 43.01480577065395" Properties=species:S:1:pos:R:3:move_mask:L:1:tags:I:1 surface_element=Al miller="_JSON [1, 1, 1]" slab_size="_JSON [4, 4, 4]" vacuum_angstrom=18.0 fixed_layers=2 fixed_atom_indices="_JSON [0, 1, 2, 3, 4, 5, 6, 7, 8, 9, 10, 11, 12, 13, 14, 15, 16, 17, 18, 19, 20, 21, 22, 23, 24, 25, 26, 27, 28, 29, 30, 31]" system_name=al111_h2o adsorbate=H2O site=hcp orientation=dipole_down height_angstrom=2.8 structure_id=f5e4663d1d130a9e pbc="T T T"
Al       0.00000000       0.00000000      18.00000000  F        4
Al       2.86378246       0.00000000      18.00000000  F        4
Al       5.72756493       0.00000000      18.00000000  F        4
Al       8.59134739       0.00000000      18.00000000  F        4
Al       1.43189123       2.48010836      18.00000000  F        4
Al       4.29567370       2.48010836      18.00000000  F        4
Al       7.15945616       2.48010836      18.00000000  F        4
Al      10.02323862       2.48010836      18.00000000  F        4
Al       2.86378246       4.96021673      18.00000000  F        4
Al       5.72756493       4.96021673      18.00000000  F        4
Al       8.59134739       4.96021673      18.00000000  F        4
Al      11.45512986       4.96021673      18.00000000  F        4
Al       4.29567370       7.44032509      18.00000000  F        4
Al       7.15945616       7.44032509      18.00000000  F        4
Al      10.02323862       7.44032509      18.00000000  F        4
Al      12.88702109       7.44032509      18.00000000  F        4
Al       1.43189123       0.82670279      20.33826859  F        3
Al       4.29567370       0.82670279      20.33826859  F        3
Al       7.15945616       0.82670279      20.33826859  F        3
Al      10.02323862       0.82670279      20.33826859  F        3
Al       2.86378246       3.30681115      20.33826859  F        3
Al       5.72756493       3.30681115      20.33826859  F        3
Al       8.59134739       3.30681115      20.33826859  F        3
Al      11.45512986       3.30681115      20.33826859  F        3
Al       4.29567370       5.78691952      20.33826859  F        3
Al       7.15945616       5.78691952      20.33826859  F        3
Al      10.02323862       5.78691952      20.33826859  F        3
Al      12.88702109       5.78691952      20.33826859  F        3
Al       5.72756493       8.26702788      20.33826859  F        3
Al       8.59134739       8.26702788      20.33826859  F        3
Al      11.45512986       8.26702788      20.33826859  F        3
Al      14.31891232       8.26702788      20.33826859  F        3
Al      -0.00000000       1.65340558      22.67653718  T        2
Al       2.86378246       1.65340558      22.67653718  T        2
Al       5.72756493       1.65340558      22.67653718  T        2
Al       8.59134739       1.65340558      22.67653718  T        2
Al       1.43189123       4.13351394      22.67653718  T        2
Al       4.29567370       4.13351394      22.67653718  T        2
Al       7.15945616       4.13351394      22.67653718  T        2
Al      10.02323862       4.13351394      22.67653718  T        2
Al       2.86378246       6.61362231      22.67653718  T        2
Al       5.72756493       6.61362231      22.67653718  T        2
Al       8.59134739       6.61362231      22.67653718  T        2
Al      11.45512986       6.61362231      22.67653718  T        2
Al       4.29567370       9.09373067      22.67653718  T        2
Al       7.15945616       9.09373067      22.67653718  T        2
Al      10.02323862       9.09373067      22.67653718  T        2
Al      12.88702109       9.09373067      22.67653718  T        2
Al       0.00000000       0.00000000      25.01480577  T        1
Al       2.86378246       0.00000000      25.01480577  T        1
Al       5.72756493       0.00000000      25.01480577  T        1
Al       8.59134739       0.00000000      25.01480577  T        1
Al       1.43189123       2.48010836      25.01480577  T        1
Al       4.29567370       2.48010836      25.01480577  T        1
Al       7.15945616       2.48010836      25.01480577  T        1
Al      10.02323862       2.48010836      25.01480577  T        1
Al       2.86378246       4.96021673      25.01480577  T        1
Al       5.72756493       4.96021673      25.01480577  T        1
Al       8.59134739       4.96021673      25.01480577  T        1
Al      11.45512986       4.96021673      25.01480577  T        1
Al       4.29567370       7.44032509      25.01480577  T        1
Al       7.15945616       7.44032509      25.01480577  T        1
Al      10.02323862       7.44032509      25.01480577  T        1
Al      12.88702109       7.44032509      25.01480577  T        1
O        6.68215908       3.30681115      27.81480577  T        0
H        6.68215908       2.54357215      28.41111477  T        0
H        6.68215908       4.07005015      28.41111477  T        0
67
Lattice="11.45512985522207 0.0 0.0 5.727564927611035 9.92043345827187 0.0 0.0 0.0 43.01480577065395" Properties=species:S:1:pos:R:3:move_mask:L:1:tags:I:1 surface_element=Al miller="_JSON [1, 1, 1]" slab_size="_JSON [4, 4, 4]" vacuum_angstrom=18.0 fixed_layers=2 fixed_atom_indices="_JSON [0, 1, 2, 3, 4, 5, 6, 7, 8, 9, 10, 11, 12, 13, 14, 15, 16, 17, 18, 19, 20, 21, 22, 23, 24, 25, 26, 27, 28, 29, 30, 31]" system_name=al111_h2o adsorbate=H2O site=hcp orientation=dipole_down height_angstrom=3.2 structure_id=3ea940a61f116002 pbc="T T T"
Al       0.00000000       0.00000000      18.00000000  F        4
Al       2.86378246       0.00000000      18.00000000  F        4
Al       5.72756493       0.00000000      18.00000000  F        4
Al       8.59134739       0.00000000      18.00000000  F        4
Al       1.43189123       2.48010836      18.00000000  F        4
Al       4.29567370       2.48010836      18.00000000  F        4
Al       7.15945616       2.48010836      18.00000000  F        4
Al      10.02323862       2.48010836      18.00000000  F        4
Al       2.86378246       4.96021673      18.00000000  F        4
Al       5.72756493       4.96021673      18.00000000  F        4
Al       8.59134739       4.96021673      18.00000000  F        4
Al      11.45512986       4.96021673      18.00000000  F        4
Al       4.29567370       7.44032509      18.00000000  F        4
Al       7.15945616       7.44032509      18.00000000  F        4
Al      10.02323862       7.44032509      18.00000000  F        4
Al      12.88702109       7.44032509      18.00000000  F        4
Al       1.43189123       0.82670279      20.33826859  F        3
Al       4.29567370       0.82670279      20.33826859  F        3
Al       7.15945616       0.82670279      20.33826859  F        3
Al      10.02323862       0.82670279      20.33826859  F        3
Al       2.86378246       3.30681115      20.33826859  F        3
Al       5.72756493       3.30681115      20.33826859  F        3
Al       8.59134739       3.30681115      20.33826859  F        3
Al      11.45512986       3.30681115      20.33826859  F        3
Al       4.29567370       5.78691952      20.33826859  F        3
Al       7.15945616       5.78691952      20.33826859  F        3
Al      10.02323862       5.78691952      20.33826859  F        3
Al      12.88702109       5.78691952      20.33826859  F        3
Al       5.72756493       8.26702788      20.33826859  F        3
Al       8.59134739       8.26702788      20.33826859  F        3
Al      11.45512986       8.26702788      20.33826859  F        3
Al      14.31891232       8.26702788      20.33826859  F        3
Al      -0.00000000       1.65340558      22.67653718  T        2
Al       2.86378246       1.65340558      22.67653718  T        2
Al       5.72756493       1.65340558      22.67653718  T        2
Al       8.59134739       1.65340558      22.67653718  T        2
Al       1.43189123       4.13351394      22.67653718  T        2
Al       4.29567370       4.13351394      22.67653718  T        2
Al       7.15945616       4.13351394      22.67653718  T        2
Al      10.02323862       4.13351394      22.67653718  T        2
Al       2.86378246       6.61362231      22.67653718  T        2
Al       5.72756493       6.61362231      22.67653718  T        2
Al       8.59134739       6.61362231      22.67653718  T        2
Al      11.45512986       6.61362231      22.67653718  T        2
Al       4.29567370       9.09373067      22.67653718  T        2
Al       7.15945616       9.09373067      22.67653718  T        2
Al      10.02323862       9.09373067      22.67653718  T        2
Al      12.88702109       9.09373067      22.67653718  T        2
Al       0.00000000       0.00000000      25.01480577  T        1
Al       2.86378246       0.00000000      25.01480577  T        1
Al       5.72756493       0.00000000      25.01480577  T        1
Al       8.59134739       0.00000000      25.01480577  T        1
Al       1.43189123       2.48010836      25.01480577  T        1
Al       4.29567370       2.48010836      25.01480577  T        1
Al       7.15945616       2.48010836      25.01480577  T        1
Al      10.02323862       2.48010836      25.01480577  T        1
Al       2.86378246       4.96021673      25.01480577  T        1
Al       5.72756493       4.96021673      25.01480577  T        1
Al       8.59134739       4.96021673      25.01480577  T        1
Al      11.45512986       4.96021673      25.01480577  T        1
Al       4.29567370       7.44032509      25.01480577  T        1
Al       7.15945616       7.44032509      25.01480577  T        1
Al      10.02323862       7.44032509      25.01480577  T        1
Al      12.88702109       7.44032509      25.01480577  T        1
O        6.68215908       3.30681115      28.21480577  T        0
H        6.68215908       2.54357215      28.81111477  T        0
H        6.68215908       4.07005015      28.81111477  T        0
67
Lattice="11.45512985522207 0.0 0.0 5.727564927611035 9.92043345827187 0.0 0.0 0.0 43.01480577065395" Properties=species:S:1:pos:R:3:move_mask:L:1:tags:I:1 surface_element=Al miller="_JSON [1, 1, 1]" slab_size="_JSON [4, 4, 4]" vacuum_angstrom=18.0 fixed_layers=2 fixed_atom_indices="_JSON [0, 1, 2, 3, 4, 5, 6, 7, 8, 9, 10, 11, 12, 13, 14, 15, 16, 17, 18, 19, 20, 21, 22, 23, 24, 25, 26, 27, 28, 29, 30, 31]" system_name=al111_h2o adsorbate=H2O site=hcp orientation=dipole_up height_angstrom=2.0 structure_id=da815ed2c212c417 pbc="T T T"
Al       0.00000000       0.00000000      18.00000000  F        4
Al       2.86378246       0.00000000      18.00000000  F        4
Al       5.72756493       0.00000000      18.00000000  F        4
Al       8.59134739       0.00000000      18.00000000  F        4
Al       1.43189123       2.48010836      18.00000000  F        4
Al       4.29567370       2.48010836      18.00000000  F        4
Al       7.15945616       2.48010836      18.00000000  F        4
Al      10.02323862       2.48010836      18.00000000  F        4
Al       2.86378246       4.96021673      18.00000000  F        4
Al       5.72756493       4.96021673      18.00000000  F        4
Al       8.59134739       4.96021673      18.00000000  F        4
Al      11.45512986       4.96021673      18.00000000  F        4
Al       4.29567370       7.44032509      18.00000000  F        4
Al       7.15945616       7.44032509      18.00000000  F        4
Al      10.02323862       7.44032509      18.00000000  F        4
Al      12.88702109       7.44032509      18.00000000  F        4
Al       1.43189123       0.82670279      20.33826859  F        3
Al       4.29567370       0.82670279      20.33826859  F        3
Al       7.15945616       0.82670279      20.33826859  F        3
Al      10.02323862       0.82670279      20.33826859  F        3
Al       2.86378246       3.30681115      20.33826859  F        3
Al       5.72756493       3.30681115      20.33826859  F        3
Al       8.59134739       3.30681115      20.33826859  F        3
Al      11.45512986       3.30681115      20.33826859  F        3
Al       4.29567370       5.78691952      20.33826859  F        3
Al       7.15945616       5.78691952      20.33826859  F        3
Al      10.02323862       5.78691952      20.33826859  F        3
Al      12.88702109       5.78691952      20.33826859  F        3
Al       5.72756493       8.26702788      20.33826859  F        3
Al       8.59134739       8.26702788      20.33826859  F        3
Al      11.45512986       8.26702788      20.33826859  F        3
Al      14.31891232       8.26702788      20.33826859  F        3
Al      -0.00000000       1.65340558      22.67653718  T        2
Al       2.86378246       1.65340558      22.67653718  T        2
Al       5.72756493       1.65340558      22.67653718  T        2
Al       8.59134739       1.65340558      22.67653718  T        2
Al       1.43189123       4.13351394      22.67653718  T        2
Al       4.29567370       4.13351394      22.67653718  T        2
Al       7.15945616       4.13351394      22.67653718  T        2
Al      10.02323862       4.13351394      22.67653718  T        2
Al       2.86378246       6.61362231      22.67653718  T        2
Al       5.72756493       6.61362231      22.67653718  T        2
Al       8.59134739       6.61362231      22.67653718  T        2
Al      11.45512986       6.61362231      22.67653718  T        2
Al       4.29567370       9.09373067      22.67653718  T        2
Al       7.15945616       9.09373067      22.67653718  T        2
Al      10.02323862       9.09373067      22.67653718  T        2
Al      12.88702109       9.09373067      22.67653718  T        2
Al       0.00000000       0.00000000      25.01480577  T        1
Al       2.86378246       0.00000000      25.01480577  T        1
Al       5.72756493       0.00000000      25.01480577  T        1
Al       8.59134739       0.00000000      25.01480577  T        1
Al       1.43189123       2.48010836      25.01480577  T        1
Al       4.29567370       2.48010836      25.01480577  T        1
Al       7.15945616       2.48010836      25.01480577  T        1
Al      10.02323862       2.48010836      25.01480577  T        1
Al       2.86378246       4.96021673      25.01480577  T        1
Al       5.72756493       4.96021673      25.01480577  T        1
Al       8.59134739       4.96021673      25.01480577  T        1
Al      11.45512986       4.96021673      25.01480577  T        1
Al       4.29567370       7.44032509      25.01480577  T        1
Al       7.15945616       7.44032509      25.01480577  T        1
Al      10.02323862       7.44032509      25.01480577  T        1
Al      12.88702109       7.44032509      25.01480577  T        1
O        6.68215908       3.30681115      27.01480577  T        0
H        6.68215908       4.07005015      26.41849677  T        0
H        6.68215908       2.54357215      26.41849677  T        0
67
Lattice="11.45512985522207 0.0 0.0 5.727564927611035 9.92043345827187 0.0 0.0 0.0 43.01480577065395" Properties=species:S:1:pos:R:3:move_mask:L:1:tags:I:1 surface_element=Al miller="_JSON [1, 1, 1]" slab_size="_JSON [4, 4, 4]" vacuum_angstrom=18.0 fixed_layers=2 fixed_atom_indices="_JSON [0, 1, 2, 3, 4, 5, 6, 7, 8, 9, 10, 11, 12, 13, 14, 15, 16, 17, 18, 19, 20, 21, 22, 23, 24, 25, 26, 27, 28, 29, 30, 31]" system_name=al111_h2o adsorbate=H2O site=hcp orientation=dipole_up height_angstrom=2.4 structure_id=71bb2d6a9467cc94 pbc="T T T"
Al       0.00000000       0.00000000      18.00000000  F        4
Al       2.86378246       0.00000000      18.00000000  F        4
Al       5.72756493       0.00000000      18.00000000  F        4
Al       8.59134739       0.00000000      18.00000000  F        4
Al       1.43189123       2.48010836      18.00000000  F        4
Al       4.29567370       2.48010836      18.00000000  F        4
Al       7.15945616       2.48010836      18.00000000  F        4
Al      10.02323862       2.48010836      18.00000000  F        4
Al       2.86378246       4.96021673      18.00000000  F        4
Al       5.72756493       4.96021673      18.00000000  F        4
Al       8.59134739       4.96021673      18.00000000  F        4
Al      11.45512986       4.96021673      18.00000000  F        4
Al       4.29567370       7.44032509      18.00000000  F        4
Al       7.15945616       7.44032509      18.00000000  F        4
Al      10.02323862       7.44032509      18.00000000  F        4
Al      12.88702109       7.44032509      18.00000000  F        4
Al       1.43189123       0.82670279      20.33826859  F        3
Al       4.29567370       0.82670279      20.33826859  F        3
Al       7.15945616       0.82670279      20.33826859  F        3
Al      10.02323862       0.82670279      20.33826859  F        3
Al       2.86378246       3.30681115      20.33826859  F        3
Al       5.72756493       3.30681115      20.33826859  F        3
Al       8.59134739       3.30681115      20.33826859  F        3
Al      11.45512986       3.30681115      20.33826859  F        3
Al       4.29567370       5.78691952      20.33826859  F        3
Al       7.15945616       5.78691952      20.33826859  F        3
Al      10.02323862       5.78691952      20.33826859  F        3
Al      12.88702109       5.78691952      20.33826859  F        3
Al       5.72756493       8.26702788      20.33826859  F        3
Al       8.59134739       8.26702788      20.33826859  F        3
Al      11.45512986       8.26702788      20.33826859  F        3
Al      14.31891232       8.26702788      20.33826859  F        3
Al      -0.00000000       1.65340558      22.67653718  T        2
Al       2.86378246       1.65340558      22.67653718  T        2
Al       5.72756493       1.65340558      22.67653718  T        2
Al       8.59134739       1.65340558      22.67653718  T        2
Al       1.43189123       4.13351394      22.67653718  T        2
Al       4.29567370       4.13351394      22.67653718  T        2
Al       7.15945616       4.13351394      22.67653718  T        2
Al      10.02323862       4.13351394      22.67653718  T        2
Al       2.86378246       6.61362231      22.67653718  T        2
Al       5.72756493       6.61362231      22.67653718  T        2
Al       8.59134739       6.61362231      22.67653718  T        2
Al      11.45512986       6.61362231      22.67653718  T        2
Al       4.29567370       9.09373067      22.67653718  T        2
Al       7.15945616       9.09373067      22.67653718  T        2
Al      10.02323862       9.09373067      22.67653718  T        2
Al      12.88702109       9.09373067      22.67653718  T        2
Al       0.00000000       0.00000000      25.01480577  T        1
Al       2.86378246       0.00000000      25.01480577  T        1
Al       5.72756493       0.00000000      25.01480577  T        1
Al       8.59134739       0.00000000      25.01480577  T        1
Al       1.43189123       2.48010836      25.01480577  T        1
Al       4.29567370       2.48010836      25.01480577  T        1
Al       7.15945616       2.48010836      25.01480577  T        1
Al      10.02323862       2.48010836      25.01480577  T        1
Al       2.86378246       4.96021673      25.01480577  T        1
Al       5.72756493       4.96021673      25.01480577  T        1
Al       8.59134739       4.96021673      25.01480577  T        1
Al      11.45512986       4.96021673      25.01480577  T        1
Al       4.29567370       7.44032509      25.01480577  T        1
Al       7.15945616       7.44032509      25.01480577  T        1
Al      10.02323862       7.44032509      25.01480577  T        1
Al      12.88702109       7.44032509      25.01480577  T        1
O        6.68215908       3.30681115      27.41480577  T        0
H        6.68215908       4.07005015      26.81849677  T        0
H        6.68215908       2.54357215      26.81849677  T        0
67
Lattice="11.45512985522207 0.0 0.0 5.727564927611035 9.92043345827187 0.0 0.0 0.0 43.01480577065395" Properties=species:S:1:pos:R:3:move_mask:L:1:tags:I:1 surface_element=Al miller="_JSON [1, 1, 1]" slab_size="_JSON [4, 4, 4]" vacuum_angstrom=18.0 fixed_layers=2 fixed_atom_indices="_JSON [0, 1, 2, 3, 4, 5, 6, 7, 8, 9, 10, 11, 12, 13, 14, 15, 16, 17, 18, 19, 20, 21, 22, 23, 24, 25, 26, 27, 28, 29, 30, 31]" system_name=al111_h2o adsorbate=H2O site=hcp orientation=dipole_up height_angstrom=2.8 structure_id=e415a464727c2d6c pbc="T T T"
Al       0.00000000       0.00000000      18.00000000  F        4
Al       2.86378246       0.00000000      18.00000000  F        4
Al       5.72756493       0.00000000      18.00000000  F        4
Al       8.59134739       0.00000000      18.00000000  F        4
Al       1.43189123       2.48010836      18.00000000  F        4
Al       4.29567370       2.48010836      18.00000000  F        4
Al       7.15945616       2.48010836      18.00000000  F        4
Al      10.02323862       2.48010836      18.00000000  F        4
Al       2.86378246       4.96021673      18.00000000  F        4
Al       5.72756493       4.96021673      18.00000000  F        4
Al       8.59134739       4.96021673      18.00000000  F        4
Al      11.45512986       4.96021673      18.00000000  F        4
Al       4.29567370       7.44032509      18.00000000  F        4
Al       7.15945616       7.44032509      18.00000000  F        4
Al      10.02323862       7.44032509      18.00000000  F        4
Al      12.88702109       7.44032509      18.00000000  F        4
Al       1.43189123       0.82670279      20.33826859  F        3
Al       4.29567370       0.82670279      20.33826859  F        3
Al       7.15945616       0.82670279      20.33826859  F        3
Al      10.02323862       0.82670279      20.33826859  F        3
Al       2.86378246       3.30681115      20.33826859  F        3
Al       5.72756493       3.30681115      20.33826859  F        3
Al       8.59134739       3.30681115      20.33826859  F        3
Al      11.45512986       3.30681115      20.33826859  F        3
Al       4.29567370       5.78691952      20.33826859  F        3
Al       7.15945616       5.78691952      20.33826859  F        3
Al      10.02323862       5.78691952      20.33826859  F        3
Al      12.88702109       5.78691952      20.33826859  F        3
Al       5.72756493       8.26702788      20.33826859  F        3
Al       8.59134739       8.26702788      20.33826859  F        3
Al      11.45512986       8.26702788      20.33826859  F        3
Al      14.31891232       8.26702788      20.33826859  F        3
Al      -0.00000000       1.65340558      22.67653718  T        2
Al       2.86378246       1.65340558      22.67653718  T        2
Al       5.72756493       1.65340558      22.67653718  T        2
Al       8.59134739       1.65340558      22.67653718  T        2
Al       1.43189123       4.13351394      22.67653718  T        2
Al       4.29567370       4.13351394      22.67653718  T        2
Al       7.15945616       4.13351394      22.67653718  T        2
Al      10.02323862       4.13351394      22.67653718  T        2
Al       2.86378246       6.61362231      22.67653718  T        2
Al       5.72756493       6.61362231      22.67653718  T        2
Al       8.59134739       6.61362231      22.67653718  T        2
Al      11.45512986       6.61362231      22.67653718  T        2
Al       4.29567370       9.09373067      22.67653718  T        2
Al       7.15945616       9.09373067      22.67653718  T        2
Al      10.02323862       9.09373067      22.67653718  T        2
Al      12.88702109       9.09373067      22.67653718  T        2
Al       0.00000000       0.00000000      25.01480577  T        1
Al       2.86378246       0.00000000      25.01480577  T        1
Al       5.72756493       0.00000000      25.01480577  T        1
Al       8.59134739       0.00000000      25.01480577  T        1
Al       1.43189123       2.48010836      25.01480577  T        1
Al       4.29567370       2.48010836      25.01480577  T        1
Al       7.15945616       2.48010836      25.01480577  T        1
Al      10.02323862       2.48010836      25.01480577  T        1
Al       2.86378246       4.96021673      25.01480577  T        1
Al       5.72756493       4.96021673      25.01480577  T        1
Al       8.59134739       4.96021673      25.01480577  T        1
Al      11.45512986       4.96021673      25.01480577  T        1
Al       4.29567370       7.44032509      25.01480577  T        1
Al       7.15945616       7.44032509      25.01480577  T        1
Al      10.02323862       7.44032509      25.01480577  T        1
Al      12.88702109       7.44032509      25.01480577  T        1
O        6.68215908       3.30681115      27.81480577  T        0
H        6.68215908       4.07005015      27.21849677  T        0
H        6.68215908       2.54357215      27.21849677  T        0
67
Lattice="11.45512985522207 0.0 0.0 5.727564927611035 9.92043345827187 0.0 0.0 0.0 43.01480577065395" Properties=species:S:1:pos:R:3:move_mask:L:1:tags:I:1 surface_element=Al miller="_JSON [1, 1, 1]" slab_size="_JSON [4, 4, 4]" vacuum_angstrom=18.0 fixed_layers=2 fixed_atom_indices="_JSON [0, 1, 2, 3, 4, 5, 6, 7, 8, 9, 10, 11, 12, 13, 14, 15, 16, 17, 18, 19, 20, 21, 22, 23, 24, 25, 26, 27, 28, 29, 30, 31]" system_name=al111_h2o adsorbate=H2O site=hcp orientation=dipole_up height_angstrom=3.2 structure_id=c30804fab92d24e6 pbc="T T T"
Al       0.00000000       0.00000000      18.00000000  F        4
Al       2.86378246       0.00000000      18.00000000  F        4
Al       5.72756493       0.00000000      18.00000000  F        4
Al       8.59134739       0.00000000      18.00000000  F        4
Al       1.43189123       2.48010836      18.00000000  F        4
Al       4.29567370       2.48010836      18.00000000  F        4
Al       7.15945616       2.48010836      18.00000000  F        4
Al      10.02323862       2.48010836      18.00000000  F        4
Al       2.86378246       4.96021673      18.00000000  F        4
Al       5.72756493       4.96021673      18.00000000  F        4
Al       8.59134739       4.96021673      18.00000000  F        4
Al      11.45512986       4.96021673      18.00000000  F        4
Al       4.29567370       7.44032509      18.00000000  F        4
Al       7.15945616       7.44032509      18.00000000  F        4
Al      10.02323862       7.44032509      18.00000000  F        4
Al      12.88702109       7.44032509      18.00000000  F        4
Al       1.43189123       0.82670279      20.33826859  F        3
Al       4.29567370       0.82670279      20.33826859  F        3
Al       7.15945616       0.82670279      20.33826859  F        3
Al      10.02323862       0.82670279      20.33826859  F        3
Al       2.86378246       3.30681115      20.33826859  F        3
Al       5.72756493       3.30681115      20.33826859  F        3
Al       8.59134739       3.30681115      20.33826859  F        3
Al      11.45512986       3.30681115      20.33826859  F        3
Al       4.29567370       5.78691952      20.33826859  F        3
Al       7.15945616       5.78691952      20.33826859  F        3
Al      10.02323862       5.78691952      20.33826859  F        3
Al      12.88702109       5.78691952      20.33826859  F        3
Al       5.72756493       8.26702788      20.33826859  F        3
Al       8.59134739       8.26702788      20.33826859  F        3
Al      11.45512986       8.26702788      20.33826859  F        3
Al      14.31891232       8.26702788      20.33826859  F        3
Al      -0.00000000       1.65340558      22.67653718  T        2
Al       2.86378246       1.65340558      22.67653718  T        2
Al       5.72756493       1.65340558      22.67653718  T        2
Al       8.59134739       1.65340558      22.67653718  T        2
Al       1.43189123       4.13351394      22.67653718  T        2
Al       4.29567370       4.13351394      22.67653718  T        2
Al       7.15945616       4.13351394      22.67653718  T        2
Al      10.02323862       4.13351394      22.67653718  T        2
Al       2.86378246       6.61362231      22.67653718  T        2
Al       5.72756493       6.61362231      22.67653718  T        2
Al       8.59134739       6.61362231      22.67653718  T        2
Al      11.45512986       6.61362231      22.67653718  T        2
Al       4.29567370       9.09373067      22.67653718  T        2
Al       7.15945616       9.09373067      22.67653718  T        2
Al      10.02323862       9.09373067      22.67653718  T        2
Al      12.88702109       9.09373067      22.67653718  T        2
Al       0.00000000       0.00000000      25.01480577  T        1
Al       2.86378246       0.00000000      25.01480577  T        1
Al       5.72756493       0.00000000      25.01480577  T        1
Al       8.59134739       0.00000000      25.01480577  T        1
Al       1.43189123       2.48010836      25.01480577  T        1
Al       4.29567370       2.48010836      25.01480577  T        1
Al       7.15945616       2.48010836      25.01480577  T        1
Al      10.02323862       2.48010836      25.01480577  T        1
Al       2.86378246       4.96021673      25.01480577  T        1
Al       5.72756493       4.96021673      25.01480577  T        1
Al       8.59134739       4.96021673      25.01480577  T        1
Al      11.45512986       4.96021673      25.01480577  T        1
Al       4.29567370       7.44032509      25.01480577  T        1
Al       7.15945616       7.44032509      25.01480577  T        1
Al      10.02323862       7.44032509      25.01480577  T        1
Al      12.88702109       7.44032509      25.01480577  T        1
O        6.68215908       3.30681115      28.21480577  T        0
H        6.68215908       4.07005015      27.61849677  T        0
H        6.68215908       2.54357215      27.61849677  T        0
67
Lattice="11.45512985522207 0.0 0.0 5.727564927611035 9.92043345827187 0.0 0.0 0.0 43.01480577065395" Properties=species:S:1:pos:R:3:move_mask:L:1:tags:I:1 surface_element=Al miller="_JSON [1, 1, 1]" slab_size="_JSON [4, 4, 4]" vacuum_angstrom=18.0 fixed_layers=2 fixed_atom_indices="_JSON [0, 1, 2, 3, 4, 5, 6, 7, 8, 9, 10, 11, 12, 13, 14, 15, 16, 17, 18, 19, 20, 21, 22, 23, 24, 25, 26, 27, 28, 29, 30, 31]" system_name=al111_h2o adsorbate=H2O site=hcp orientation=flat height_angstrom=2.0 structure_id=0c70706cce63db71 pbc="T T T"
Al       0.00000000       0.00000000      18.00000000  F        4
Al       2.86378246       0.00000000      18.00000000  F        4
Al       5.72756493       0.00000000      18.00000000  F        4
Al       8.59134739       0.00000000      18.00000000  F        4
Al       1.43189123       2.48010836      18.00000000  F        4
Al       4.29567370       2.48010836      18.00000000  F        4
Al       7.15945616       2.48010836      18.00000000  F        4
Al      10.02323862       2.48010836      18.00000000  F        4
Al       2.86378246       4.96021673      18.00000000  F        4
Al       5.72756493       4.96021673      18.00000000  F        4
Al       8.59134739       4.96021673      18.00000000  F        4
Al      11.45512986       4.96021673      18.00000000  F        4
Al       4.29567370       7.44032509      18.00000000  F        4
Al       7.15945616       7.44032509      18.00000000  F        4
Al      10.02323862       7.44032509      18.00000000  F        4
Al      12.88702109       7.44032509      18.00000000  F        4
Al       1.43189123       0.82670279      20.33826859  F        3
Al       4.29567370       0.82670279      20.33826859  F        3
Al       7.15945616       0.82670279      20.33826859  F        3
Al      10.02323862       0.82670279      20.33826859  F        3
Al       2.86378246       3.30681115      20.33826859  F        3
Al       5.72756493       3.30681115      20.33826859  F        3
Al       8.59134739       3.30681115      20.33826859  F        3
Al      11.45512986       3.30681115      20.33826859  F        3
Al       4.29567370       5.78691952      20.33826859  F        3
Al       7.15945616       5.78691952      20.33826859  F        3
Al      10.02323862       5.78691952      20.33826859  F        3
Al      12.88702109       5.78691952      20.33826859  F        3
Al       5.72756493       8.26702788      20.33826859  F        3
Al       8.59134739       8.26702788      20.33826859  F        3
Al      11.45512986       8.26702788      20.33826859  F        3
Al      14.31891232       8.26702788      20.33826859  F        3
Al      -0.00000000       1.65340558      22.67653718  T        2
Al       2.86378246       1.65340558      22.67653718  T        2
Al       5.72756493       1.65340558      22.67653718  T        2
Al       8.59134739       1.65340558      22.67653718  T        2
Al       1.43189123       4.13351394      22.67653718  T        2
Al       4.29567370       4.13351394      22.67653718  T        2
Al       7.15945616       4.13351394      22.67653718  T        2
Al      10.02323862       4.13351394      22.67653718  T        2
Al       2.86378246       6.61362231      22.67653718  T        2
Al       5.72756493       6.61362231      22.67653718  T        2
Al       8.59134739       6.61362231      22.67653718  T        2
Al      11.45512986       6.61362231      22.67653718  T        2
Al       4.29567370       9.09373067      22.67653718  T        2
Al       7.15945616       9.09373067      22.67653718  T        2
Al      10.02323862       9.09373067      22.67653718  T        2
Al      12.88702109       9.09373067      22.67653718  T        2
Al       0.00000000       0.00000000      25.01480577  T        1
Al       2.86378246       0.00000000      25.01480577  T        1
Al       5.72756493       0.00000000      25.01480577  T        1
Al       8.59134739       0.00000000      25.01480577  T        1
Al       1.43189123       2.48010836      25.01480577  T        1
Al       4.29567370       2.48010836      25.01480577  T        1
Al       7.15945616       2.48010836      25.01480577  T        1
Al      10.02323862       2.48010836      25.01480577  T        1
Al       2.86378246       4.96021673      25.01480577  T        1
Al       5.72756493       4.96021673      25.01480577  T        1
Al       8.59134739       4.96021673      25.01480577  T        1
Al      11.45512986       4.96021673      25.01480577  T        1
Al       4.29567370       7.44032509      25.01480577  T        1
Al       7.15945616       7.44032509      25.01480577  T        1
Al      10.02323862       7.44032509      25.01480577  T        1
Al      12.88702109       7.44032509      25.01480577  T        1
O        6.68215908       3.30681115      27.01480577  T        0
H        6.08585008       4.07005015      27.01480577  T        0
H        6.08585008       2.54357215      27.01480577  T        0
67
Lattice="11.45512985522207 0.0 0.0 5.727564927611035 9.92043345827187 0.0 0.0 0.0 43.01480577065395" Properties=species:S:1:pos:R:3:move_mask:L:1:tags:I:1 surface_element=Al miller="_JSON [1, 1, 1]" slab_size="_JSON [4, 4, 4]" vacuum_angstrom=18.0 fixed_layers=2 fixed_atom_indices="_JSON [0, 1, 2, 3, 4, 5, 6, 7, 8, 9, 10, 11, 12, 13, 14, 15, 16, 17, 18, 19, 20, 21, 22, 23, 24, 25, 26, 27, 28, 29, 30, 31]" system_name=al111_h2o adsorbate=H2O site=hcp orientation=flat height_angstrom=2.4 structure_id=4bf34adca538dfc3 pbc="T T T"
Al       0.00000000       0.00000000      18.00000000  F        4
Al       2.86378246       0.00000000      18.00000000  F        4
Al       5.72756493       0.00000000      18.00000000  F        4
Al       8.59134739       0.00000000      18.00000000  F        4
Al       1.43189123       2.48010836      18.00000000  F        4
Al       4.29567370       2.48010836      18.00000000  F        4
Al       7.15945616       2.48010836      18.00000000  F        4
Al      10.02323862       2.48010836      18.00000000  F        4
Al       2.86378246       4.96021673      18.00000000  F        4
Al       5.72756493       4.96021673      18.00000000  F        4
Al       8.59134739       4.96021673      18.00000000  F        4
Al      11.45512986       4.96021673      18.00000000  F        4
Al       4.29567370       7.44032509      18.00000000  F        4
Al       7.15945616       7.44032509      18.00000000  F        4
Al      10.02323862       7.44032509      18.00000000  F        4
Al      12.88702109       7.44032509      18.00000000  F        4
Al       1.43189123       0.82670279      20.33826859  F        3
Al       4.29567370       0.82670279      20.33826859  F        3
Al       7.15945616       0.82670279      20.33826859  F        3
Al      10.02323862       0.82670279      20.33826859  F        3
Al       2.86378246       3.30681115      20.33826859  F        3
Al       5.72756493       3.30681115      20.33826859  F        3
Al       8.59134739       3.30681115      20.33826859  F        3
Al      11.45512986       3.30681115      20.33826859  F        3
Al       4.29567370       5.78691952      20.33826859  F        3
Al       7.15945616       5.78691952      20.33826859  F        3
Al      10.02323862       5.78691952      20.33826859  F        3
Al      12.88702109       5.78691952      20.33826859  F        3
Al       5.72756493       8.26702788      20.33826859  F        3
Al       8.59134739       8.26702788      20.33826859  F        3
Al      11.45512986       8.26702788      20.33826859  F        3
Al      14.31891232       8.26702788      20.33826859  F        3
Al      -0.00000000       1.65340558      22.67653718  T        2
Al       2.86378246       1.65340558      22.67653718  T        2
Al       5.72756493       1.65340558      22.67653718  T        2
Al       8.59134739       1.65340558      22.67653718  T        2
Al       1.43189123       4.13351394      22.67653718  T        2
Al       4.29567370       4.13351394      22.67653718  T        2
Al       7.15945616       4.13351394      22.67653718  T        2
Al      10.02323862       4.13351394      22.67653718  T        2
Al       2.86378246       6.61362231      22.67653718  T        2
Al       5.72756493       6.61362231      22.67653718  T        2
Al       8.59134739       6.61362231      22.67653718  T        2
Al      11.45512986       6.61362231      22.67653718  T        2
Al       4.29567370       9.09373067      22.67653718  T        2
Al       7.15945616       9.09373067      22.67653718  T        2
Al      10.02323862       9.09373067      22.67653718  T        2
Al      12.88702109       9.09373067      22.67653718  T        2
Al       0.00000000       0.00000000      25.01480577  T        1
Al       2.86378246       0.00000000      25.01480577  T        1
Al       5.72756493       0.00000000      25.01480577  T        1
Al       8.59134739       0.00000000      25.01480577  T        1
Al       1.43189123       2.48010836      25.01480577  T        1
Al       4.29567370       2.48010836      25.01480577  T        1
Al       7.15945616       2.48010836      25.01480577  T        1
Al      10.02323862       2.48010836      25.01480577  T        1
Al       2.86378246       4.96021673      25.01480577  T        1
Al       5.72756493       4.96021673      25.01480577  T        1
Al       8.59134739       4.96021673      25.01480577  T        1
Al      11.45512986       4.96021673      25.01480577  T        1
Al       4.29567370       7.44032509      25.01480577  T        1
Al       7.15945616       7.44032509      25.01480577  T        1
Al      10.02323862       7.44032509      25.01480577  T        1
Al      12.88702109       7.44032509      25.01480577  T        1
O        6.68215908       3.30681115      27.41480577  T        0
H        6.08585008       4.07005015      27.41480577  T        0
H        6.08585008       2.54357215      27.41480577  T        0
67
Lattice="11.45512985522207 0.0 0.0 5.727564927611035 9.92043345827187 0.0 0.0 0.0 43.01480577065395" Properties=species:S:1:pos:R:3:move_mask:L:1:tags:I:1 surface_element=Al miller="_JSON [1, 1, 1]" slab_size="_JSON [4, 4, 4]" vacuum_angstrom=18.0 fixed_layers=2 fixed_atom_indices="_JSON [0, 1, 2, 3, 4, 5, 6, 7, 8, 9, 10, 11, 12, 13, 14, 15, 16, 17, 18, 19, 20, 21, 22, 23, 24, 25, 26, 27, 28, 29, 30, 31]" system_name=al111_h2o adsorbate=H2O site=hcp orientation=flat height_angstrom=2.8 structure_id=e192590304e836ab pbc="T T T"
Al       0.00000000       0.00000000      18.00000000  F        4
Al       2.86378246       0.00000000      18.00000000  F        4
Al       5.72756493       0.00000000      18.00000000  F        4
Al       8.59134739       0.00000000      18.00000000  F        4
Al       1.43189123       2.48010836      18.00000000  F        4
Al       4.29567370       2.48010836      18.00000000  F        4
Al       7.15945616       2.48010836      18.00000000  F        4
Al      10.02323862       2.48010836      18.00000000  F        4
Al       2.86378246       4.96021673      18.00000000  F        4
Al       5.72756493       4.96021673      18.00000000  F        4
Al       8.59134739       4.96021673      18.00000000  F        4
Al      11.45512986       4.96021673      18.00000000  F        4
Al       4.29567370       7.44032509      18.00000000  F        4
Al       7.15945616       7.44032509      18.00000000  F        4
Al      10.02323862       7.44032509      18.00000000  F        4
Al      12.88702109       7.44032509      18.00000000  F        4
Al       1.43189123       0.82670279      20.33826859  F        3
Al       4.29567370       0.82670279      20.33826859  F        3
Al       7.15945616       0.82670279      20.33826859  F        3
Al      10.02323862       0.82670279      20.33826859  F        3
Al       2.86378246       3.30681115      20.33826859  F        3
Al       5.72756493       3.30681115      20.33826859  F        3
Al       8.59134739       3.30681115      20.33826859  F        3
Al      11.45512986       3.30681115      20.33826859  F        3
Al       4.29567370       5.78691952      20.33826859  F        3
Al       7.15945616       5.78691952      20.33826859  F        3
Al      10.02323862       5.78691952      20.33826859  F        3
Al      12.88702109       5.78691952      20.33826859  F        3
Al       5.72756493       8.26702788      20.33826859  F        3
Al       8.59134739       8.26702788      20.33826859  F        3
Al      11.45512986       8.26702788      20.33826859  F        3
Al      14.31891232       8.26702788      20.33826859  F        3
Al      -0.00000000       1.65340558      22.67653718  T        2
Al       2.86378246       1.65340558      22.67653718  T        2
Al       5.72756493       1.65340558      22.67653718  T        2
Al       8.59134739       1.65340558      22.67653718  T        2
Al       1.43189123       4.13351394      22.67653718  T        2
Al       4.29567370       4.13351394      22.67653718  T        2
Al       7.15945616       4.13351394      22.67653718  T        2
Al      10.02323862       4.13351394      22.67653718  T        2
Al       2.86378246       6.61362231      22.67653718  T        2
Al       5.72756493       6.61362231      22.67653718  T        2
Al       8.59134739       6.61362231      22.67653718  T        2
Al      11.45512986       6.61362231      22.67653718  T        2
Al       4.29567370       9.09373067      22.67653718  T        2
Al       7.15945616       9.09373067      22.67653718  T        2
Al      10.02323862       9.09373067      22.67653718  T        2
Al      12.88702109       9.09373067      22.67653718  T        2
Al       0.00000000       0.00000000      25.01480577  T        1
Al       2.86378246       0.00000000      25.01480577  T        1
Al       5.72756493       0.00000000      25.01480577  T        1
Al       8.59134739       0.00000000      25.01480577  T        1
Al       1.43189123       2.48010836      25.01480577  T        1
Al       4.29567370       2.48010836      25.01480577  T        1
Al       7.15945616       2.48010836      25.01480577  T        1
Al      10.02323862       2.48010836      25.01480577  T        1
Al       2.86378246       4.96021673      25.01480577  T        1
Al       5.72756493       4.96021673      25.01480577  T        1
Al       8.59134739       4.96021673      25.01480577  T        1
Al      11.45512986       4.96021673      25.01480577  T        1
Al       4.29567370       7.44032509      25.01480577  T        1
Al       7.15945616       7.44032509      25.01480577  T        1
Al      10.02323862       7.44032509      25.01480577  T        1
Al      12.88702109       7.44032509      25.01480577  T        1
O        6.68215908       3.30681115      27.81480577  T        0
H        6.08585008       4.07005015      27.81480577  T        0
H        6.08585008       2.54357215      27.81480577  T        0
67
Lattice="11.45512985522207 0.0 0.0 5.727564927611035 9.92043345827187 0.0 0.0 0.0 43.01480577065395" Properties=species:S:1:pos:R:3:move_mask:L:1:tags:I:1 surface_element=Al miller="_JSON [1, 1, 1]" slab_size="_JSON [4, 4, 4]" vacuum_angstrom=18.0 fixed_layers=2 fixed_atom_indices="_JSON [0, 1, 2, 3, 4, 5, 6, 7, 8, 9, 10, 11, 12, 13, 14, 15, 16, 17, 18, 19, 20, 21, 22, 23, 24, 25, 26, 27, 28, 29, 30, 31]" system_name=al111_h2o adsorbate=H2O site=hcp orientation=flat height_angstrom=3.2 structure_id=513f9c44e0b91fc8 pbc="T T T"
Al       0.00000000       0.00000000      18.00000000  F        4
Al       2.86378246       0.00000000      18.00000000  F        4
Al       5.72756493       0.00000000      18.00000000  F        4
Al       8.59134739       0.00000000      18.00000000  F        4
Al       1.43189123       2.48010836      18.00000000  F        4
Al       4.29567370       2.48010836      18.00000000  F        4
Al       7.15945616       2.48010836      18.00000000  F        4
Al      10.02323862       2.48010836      18.00000000  F        4
Al       2.86378246       4.96021673      18.00000000  F        4
Al       5.72756493       4.96021673      18.00000000  F        4
Al       8.59134739       4.96021673      18.00000000  F        4
Al      11.45512986       4.96021673      18.00000000  F        4
Al       4.29567370       7.44032509      18.00000000  F        4
Al       7.15945616       7.44032509      18.00000000  F        4
Al      10.02323862       7.44032509      18.00000000  F        4
Al      12.88702109       7.44032509      18.00000000  F        4
Al       1.43189123       0.82670279      20.33826859  F        3
Al       4.29567370       0.82670279      20.33826859  F        3
Al       7.15945616       0.82670279      20.33826859  F        3
Al      10.02323862       0.82670279      20.33826859  F        3
Al       2.86378246       3.30681115      20.33826859  F        3
Al       5.72756493       3.30681115      20.33826859  F        3
Al       8.59134739       3.30681115      20.33826859  F        3
Al      11.45512986       3.30681115      20.33826859  F        3
Al       4.29567370       5.78691952      20.33826859  F        3
Al       7.15945616       5.78691952      20.33826859  F        3
Al      10.02323862       5.78691952      20.33826859  F        3
Al      12.88702109       5.78691952      20.33826859  F        3
Al       5.72756493       8.26702788      20.33826859  F        3
Al       8.59134739       8.26702788      20.33826859  F        3
Al      11.45512986       8.26702788      20.33826859  F        3
Al      14.31891232       8.26702788      20.33826859  F        3
Al      -0.00000000       1.65340558      22.67653718  T        2
Al       2.86378246       1.65340558      22.67653718  T        2
Al       5.72756493       1.65340558      22.67653718  T        2
Al       8.59134739       1.65340558      22.67653718  T        2
Al       1.43189123       4.13351394      22.67653718  T        2
Al       4.29567370       4.13351394      22.67653718  T        2
Al       7.15945616       4.13351394      22.67653718  T        2
Al      10.02323862       4.13351394      22.67653718  T        2
Al       2.86378246       6.61362231      22.67653718  T        2
Al       5.72756493       6.61362231      22.67653718  T        2
Al       8.59134739       6.61362231      22.67653718  T        2
Al      11.45512986       6.61362231      22.67653718  T        2
Al       4.29567370       9.09373067      22.67653718  T        2
Al       7.15945616       9.09373067      22.67653718  T        2
Al      10.02323862       9.09373067      22.67653718  T        2
Al      12.88702109       9.09373067      22.67653718  T        2
Al       0.00000000       0.00000000      25.01480577  T        1
Al       2.86378246       0.00000000      25.01480577  T        1
Al       5.72756493       0.00000000      25.01480577  T        1
Al       8.59134739       0.00000000      25.01480577  T        1
Al       1.43189123       2.48010836      25.01480577  T        1
Al       4.29567370       2.48010836      25.01480577  T        1
Al       7.15945616       2.48010836      25.01480577  T        1
Al      10.02323862       2.48010836      25.01480577  T        1
Al       2.86378246       4.96021673      25.01480577  T        1
Al       5.72756493       4.96021673      25.01480577  T        1
Al       8.59134739       4.96021673      25.01480577  T        1
Al      11.45512986       4.96021673      25.01480577  T        1
Al       4.29567370       7.44032509      25.01480577  T        1
Al       7.15945616       7.44032509      25.01480577  T        1
Al      10.02323862       7.44032509      25.01480577  T        1
Al      12.88702109       7.44032509      25.01480577  T        1
O        6.68215908       3.30681115      28.21480577  T        0
H        6.08585008       4.07005015      28.21480577  T        0
H        6.08585008       2.54357215      28.21480577  T        0
67
Lattice="11.45512985522207 0.0 0.0 5.727564927611035 9.92043345827187 0.0 0.0 0.0 43.01480577065395" Properties=species:S:1:pos:R:3:move_mask:L:1:tags:I:1 surface_element=Al miller="_JSON [1, 1, 1]" slab_size="_JSON [4, 4, 4]" vacuum_angstrom=18.0 fixed_layers=2 fixed_atom_indices="_JSON [0, 1, 2, 3, 4, 5, 6, 7, 8, 9, 10, 11, 12, 13, 14, 15, 16, 17, 18, 19, 20, 21, 22, 23, 24, 25, 26, 27, 28, 29, 30, 31]" system_name=al111_h2o adsorbate=H2O site=fcc orientation=dipole_down height_angstrom=2.0 structure_id=f9abb9c8305b1c2d pbc="T T T"
Al       0.00000000       0.00000000      18.00000000  F        4
Al       2.86378246       0.00000000      18.00000000  F        4
Al       5.72756493       0.00000000      18.00000000  F        4
Al       8.59134739       0.00000000      18.00000000  F        4
Al       1.43189123       2.48010836      18.00000000  F        4
Al       4.29567370       2.48010836      18.00000000  F        4
Al       7.15945616       2.48010836      18.00000000  F        4
Al      10.02323862       2.48010836      18.00000000  F        4
Al       2.86378246       4.96021673      18.00000000  F        4
Al       5.72756493       4.96021673      18.00000000  F        4
Al       8.59134739       4.96021673      18.00000000  F        4
Al      11.45512986       4.96021673      18.00000000  F        4
Al       4.29567370       7.44032509      18.00000000  F        4
Al       7.15945616       7.44032509      18.00000000  F        4
Al      10.02323862       7.44032509      18.00000000  F        4
Al      12.88702109       7.44032509      18.00000000  F        4
Al       1.43189123       0.82670279      20.33826859  F        3
Al       4.29567370       0.82670279      20.33826859  F        3
Al       7.15945616       0.82670279      20.33826859  F        3
Al      10.02323862       0.82670279      20.33826859  F        3
Al       2.86378246       3.30681115      20.33826859  F        3
Al       5.72756493       3.30681115      20.33826859  F        3
Al       8.59134739       3.30681115      20.33826859  F        3
Al      11.45512986       3.30681115      20.33826859  F        3
Al       4.29567370       5.78691952      20.33826859  F        3
Al       7.15945616       5.78691952      20.33826859  F        3
Al      10.02323862       5.78691952      20.33826859  F        3
Al      12.88702109       5.78691952      20.33826859  F        3
Al       5.72756493       8.26702788      20.33826859  F        3
Al       8.59134739       8.26702788      20.33826859  F        3
Al      11.45512986       8.26702788      20.33826859  F        3
Al      14.31891232       8.26702788      20.33826859  F        3
Al      -0.00000000       1.65340558      22.67653718  T        2
Al       2.86378246       1.65340558      22.67653718  T        2
Al       5.72756493       1.65340558      22.67653718  T        2
Al       8.59134739       1.65340558      22.67653718  T        2
Al       1.43189123       4.13351394      22.67653718  T        2
Al       4.29567370       4.13351394      22.67653718  T        2
Al       7.15945616       4.13351394      22.67653718  T        2
Al      10.02323862       4.13351394      22.67653718  T        2
Al       2.86378246       6.61362231      22.67653718  T        2
Al       5.72756493       6.61362231      22.67653718  T        2
Al       8.59134739       6.61362231      22.67653718  T        2
Al      11.45512986       6.61362231      22.67653718  T        2
Al       4.29567370       9.09373067      22.67653718  T        2
Al       7.15945616       9.09373067      22.67653718  T        2
Al      10.02323862       9.09373067      22.67653718  T        2
Al      12.88702109       9.09373067      22.67653718  T        2
Al       0.00000000       0.00000000      25.01480577  T        1
Al       2.86378246       0.00000000      25.01480577  T        1
Al       5.72756493       0.00000000      25.01480577  T        1
Al       8.59134739       0.00000000      25.01480577  T        1
Al       1.43189123       2.48010836      25.01480577  T        1
Al       4.29567370       2.48010836      25.01480577  T        1
Al       7.15945616       2.48010836      25.01480577  T        1
Al      10.02323862       2.48010836      25.01480577  T        1
Al       2.86378246       4.96021673      25.01480577  T        1
Al       5.72756493       4.96021673      25.01480577  T        1
Al       8.59134739       4.96021673      25.01480577  T        1
Al      11.45512986       4.96021673      25.01480577  T        1
Al       4.29567370       7.44032509      25.01480577  T        1
Al       7.15945616       7.44032509      25.01480577  T        1
Al      10.02323862       7.44032509      25.01480577  T        1
Al      12.88702109       7.44032509      25.01480577  T        1
O        6.68215908       4.96021673      27.01480577  T        0
H        6.68215908       4.19697773      27.61111477  T        0
H        6.68215908       5.72345573      27.61111477  T        0
67
Lattice="11.45512985522207 0.0 0.0 5.727564927611035 9.92043345827187 0.0 0.0 0.0 43.01480577065395" Properties=species:S:1:pos:R:3:move_mask:L:1:tags:I:1 surface_element=Al miller="_JSON [1, 1, 1]" slab_size="_JSON [4, 4, 4]" vacuum_angstrom=18.0 fixed_layers=2 fixed_atom_indices="_JSON [0, 1, 2, 3, 4, 5, 6, 7, 8, 9, 10, 11, 12, 13, 14, 15, 16, 17, 18, 19, 20, 21, 22, 23, 24, 25, 26, 27, 28, 29, 30, 31]" system_name=al111_h2o adsorbate=H2O site=fcc orientation=dipole_down height_angstrom=2.4 structure_id=b467960d9091ae83 pbc="T T T"
Al       0.00000000       0.00000000      18.00000000  F        4
Al       2.86378246       0.00000000      18.00000000  F        4
Al       5.72756493       0.00000000      18.00000000  F        4
Al       8.59134739       0.00000000      18.00000000  F        4
Al       1.43189123       2.48010836      18.00000000  F        4
Al       4.29567370       2.48010836      18.00000000  F        4
Al       7.15945616       2.48010836      18.00000000  F        4
Al      10.02323862       2.48010836      18.00000000  F        4
Al       2.86378246       4.96021673      18.00000000  F        4
Al       5.72756493       4.96021673      18.00000000  F        4
Al       8.59134739       4.96021673      18.00000000  F        4
Al      11.45512986       4.96021673      18.00000000  F        4
Al       4.29567370       7.44032509      18.00000000  F        4
Al       7.15945616       7.44032509      18.00000000  F        4
Al      10.02323862       7.44032509      18.00000000  F        4
Al      12.88702109       7.44032509      18.00000000  F        4
Al       1.43189123       0.82670279      20.33826859  F        3
Al       4.29567370       0.82670279      20.33826859  F        3
Al       7.15945616       0.82670279      20.33826859  F        3
Al      10.02323862       0.82670279      20.33826859  F        3
Al       2.86378246       3.30681115      20.33826859  F        3
Al       5.72756493       3.30681115      20.33826859  F        3
Al       8.59134739       3.30681115      20.33826859  F        3
Al      11.45512986       3.30681115      20.33826859  F        3
Al       4.29567370       5.78691952      20.33826859  F        3
Al       7.15945616       5.78691952      20.33826859  F        3
Al      10.02323862       5.78691952      20.33826859  F        3
Al      12.88702109       5.78691952      20.33826859  F        3
Al       5.72756493       8.26702788      20.33826859  F        3
Al       8.59134739       8.26702788      20.33826859  F        3
Al      11.45512986       8.26702788      20.33826859  F        3
Al      14.31891232       8.26702788      20.33826859  F        3
Al      -0.00000000       1.65340558      22.67653718  T        2
Al       2.86378246       1.65340558      22.67653718  T        2
Al       5.72756493       1.65340558      22.67653718  T        2
Al       8.59134739       1.65340558      22.67653718  T        2
Al       1.43189123       4.13351394      22.67653718  T        2
Al       4.29567370       4.13351394      22.67653718  T        2
Al       7.15945616       4.13351394      22.67653718  T        2
Al      10.02323862       4.13351394      22.67653718  T        2
Al       2.86378246       6.61362231      22.67653718  T        2
Al       5.72756493       6.61362231      22.67653718  T        2
Al       8.59134739       6.61362231      22.67653718  T        2
Al      11.45512986       6.61362231      22.67653718  T        2
Al       4.29567370       9.09373067      22.67653718  T        2
Al       7.15945616       9.09373067      22.67653718  T        2
Al      10.02323862       9.09373067      22.67653718  T        2
Al      12.88702109       9.09373067      22.67653718  T        2
Al       0.00000000       0.00000000      25.01480577  T        1
Al       2.86378246       0.00000000      25.01480577  T        1
Al       5.72756493       0.00000000      25.01480577  T        1
Al       8.59134739       0.00000000      25.01480577  T        1
Al       1.43189123       2.48010836      25.01480577  T        1
Al       4.29567370       2.48010836      25.01480577  T        1
Al       7.15945616       2.48010836      25.01480577  T        1
Al      10.02323862       2.48010836      25.01480577  T        1
Al       2.86378246       4.96021673      25.01480577  T        1
Al       5.72756493       4.96021673      25.01480577  T        1
Al       8.59134739       4.96021673      25.01480577  T        1
Al      11.45512986       4.96021673      25.01480577  T        1
Al       4.29567370       7.44032509      25.01480577  T        1
Al       7.15945616       7.44032509      25.01480577  T        1
Al      10.02323862       7.44032509      25.01480577  T        1
Al      12.88702109       7.44032509      25.01480577  T        1
O        6.68215908       4.96021673      27.41480577  T        0
H        6.68215908       4.19697773      28.01111477  T        0
H        6.68215908       5.72345573      28.01111477  T        0
67
Lattice="11.45512985522207 0.0 0.0 5.727564927611035 9.92043345827187 0.0 0.0 0.0 43.01480577065395" Properties=species:S:1:pos:R:3:move_mask:L:1:tags:I:1 surface_element=Al miller="_JSON [1, 1, 1]" slab_size="_JSON [4, 4, 4]" vacuum_angstrom=18.0 fixed_layers=2 fixed_atom_indices="_JSON [0, 1, 2, 3, 4, 5, 6, 7, 8, 9, 10, 11, 12, 13, 14, 15, 16, 17, 18, 19, 20, 21, 22, 23, 24, 25, 26, 27, 28, 29, 30, 31]" system_name=al111_h2o adsorbate=H2O site=fcc orientation=dipole_down height_angstrom=2.8 structure_id=5ca76dc681e2da3e pbc="T T T"
Al       0.00000000       0.00000000      18.00000000  F        4
Al       2.86378246       0.00000000      18.00000000  F        4
Al       5.72756493       0.00000000      18.00000000  F        4
Al       8.59134739       0.00000000      18.00000000  F        4
Al       1.43189123       2.48010836      18.00000000  F        4
Al       4.29567370       2.48010836      18.00000000  F        4
Al       7.15945616       2.48010836      18.00000000  F        4
Al      10.02323862       2.48010836      18.00000000  F        4
Al       2.86378246       4.96021673      18.00000000  F        4
Al       5.72756493       4.96021673      18.00000000  F        4
Al       8.59134739       4.96021673      18.00000000  F        4
Al      11.45512986       4.96021673      18.00000000  F        4
Al       4.29567370       7.44032509      18.00000000  F        4
Al       7.15945616       7.44032509      18.00000000  F        4
Al      10.02323862       7.44032509      18.00000000  F        4
Al      12.88702109       7.44032509      18.00000000  F        4
Al       1.43189123       0.82670279      20.33826859  F        3
Al       4.29567370       0.82670279      20.33826859  F        3
Al       7.15945616       0.82670279      20.33826859  F        3
Al      10.02323862       0.82670279      20.33826859  F        3
Al       2.86378246       3.30681115      20.33826859  F        3
Al       5.72756493       3.30681115      20.33826859  F        3
Al       8.59134739       3.30681115      20.33826859  F        3
Al      11.45512986       3.30681115      20.33826859  F        3
Al       4.29567370       5.78691952      20.33826859  F        3
Al       7.15945616       5.78691952      20.33826859  F        3
Al      10.02323862       5.78691952      20.33826859  F        3
Al      12.88702109       5.78691952      20.33826859  F        3
Al       5.72756493       8.26702788      20.33826859  F        3
Al       8.59134739       8.26702788      20.33826859  F        3
Al      11.45512986       8.26702788      20.33826859  F        3
Al      14.31891232       8.26702788      20.33826859  F        3
Al      -0.00000000       1.65340558      22.67653718  T        2
Al       2.86378246       1.65340558      22.67653718  T        2
Al       5.72756493       1.65340558      22.67653718  T        2
Al       8.59134739       1.65340558      22.67653718  T        2
Al       1.43189123       4.13351394      22.67653718  T        2
Al       4.29567370       4.13351394      22.67653718  T        2
Al       7.15945616       4.13351394      22.67653718  T        2
Al      10.02323862       4.13351394      22.67653718  T        2
Al       2.86378246       6.61362231      22.67653718  T        2
Al       5.72756493       6.61362231      22.67653718  T        2
Al       8.59134739       6.61362231      22.67653718  T        2
Al      11.45512986       6.61362231      22.67653718  T        2
Al       4.29567370       9.09373067      22.67653718  T        2
Al       7.15945616       9.09373067      22.67653718  T        2
Al      10.02323862       9.09373067      22.67653718  T        2
Al      12.88702109       9.09373067      22.67653718  T        2
Al       0.00000000       0.00000000      25.01480577  T        1
Al       2.86378246       0.00000000      25.01480577  T        1
Al       5.72756493       0.00000000      25.01480577  T        1
Al       8.59134739       0.00000000      25.01480577  T        1
Al       1.43189123       2.48010836      25.01480577  T        1
Al       4.29567370       2.48010836      25.01480577  T        1
Al       7.15945616       2.48010836      25.01480577  T        1
Al      10.02323862       2.48010836      25.01480577  T        1
Al       2.86378246       4.96021673      25.01480577  T        1
Al       5.72756493       4.96021673      25.01480577  T        1
Al       8.59134739       4.96021673      25.01480577  T        1
Al      11.45512986       4.96021673      25.01480577  T        1
Al       4.29567370       7.44032509      25.01480577  T        1
Al       7.15945616       7.44032509      25.01480577  T        1
Al      10.02323862       7.44032509      25.01480577  T        1
Al      12.88702109       7.44032509      25.01480577  T        1
O        6.68215908       4.96021673      27.81480577  T        0
H        6.68215908       4.19697773      28.41111477  T        0
H        6.68215908       5.72345573      28.41111477  T        0
67
Lattice="11.45512985522207 0.0 0.0 5.727564927611035 9.92043345827187 0.0 0.0 0.0 43.01480577065395" Properties=species:S:1:pos:R:3:move_mask:L:1:tags:I:1 surface_element=Al miller="_JSON [1, 1, 1]" slab_size="_JSON [4, 4, 4]" vacuum_angstrom=18.0 fixed_layers=2 fixed_atom_indices="_JSON [0, 1, 2, 3, 4, 5, 6, 7, 8, 9, 10, 11, 12, 13, 14, 15, 16, 17, 18, 19, 20, 21, 22, 23, 24, 25, 26, 27, 28, 29, 30, 31]" system_name=al111_h2o adsorbate=H2O site=fcc orientation=dipole_down height_angstrom=3.2 structure_id=b2f1ca408394db5a pbc="T T T"
Al       0.00000000       0.00000000      18.00000000  F        4
Al       2.86378246       0.00000000      18.00000000  F        4
Al       5.72756493       0.00000000      18.00000000  F        4
Al       8.59134739       0.00000000      18.00000000  F        4
Al       1.43189123       2.48010836      18.00000000  F        4
Al       4.29567370       2.48010836      18.00000000  F        4
Al       7.15945616       2.48010836      18.00000000  F        4
Al      10.02323862       2.48010836      18.00000000  F        4
Al       2.86378246       4.96021673      18.00000000  F        4
Al       5.72756493       4.96021673      18.00000000  F        4
Al       8.59134739       4.96021673      18.00000000  F        4
Al      11.45512986       4.96021673      18.00000000  F        4
Al       4.29567370       7.44032509      18.00000000  F        4
Al       7.15945616       7.44032509      18.00000000  F        4
Al      10.02323862       7.44032509      18.00000000  F        4
Al      12.88702109       7.44032509      18.00000000  F        4
Al       1.43189123       0.82670279      20.33826859  F        3
Al       4.29567370       0.82670279      20.33826859  F        3
Al       7.15945616       0.82670279      20.33826859  F        3
Al      10.02323862       0.82670279      20.33826859  F        3
Al       2.86378246       3.30681115      20.33826859  F        3
Al       5.72756493       3.30681115      20.33826859  F        3
Al       8.59134739       3.30681115      20.33826859  F        3
Al      11.45512986       3.30681115      20.33826859  F        3
Al       4.29567370       5.78691952      20.33826859  F        3
Al       7.15945616       5.78691952      20.33826859  F        3
Al      10.02323862       5.78691952      20.33826859  F        3
Al      12.88702109       5.78691952      20.33826859  F        3
Al       5.72756493       8.26702788      20.33826859  F        3
Al       8.59134739       8.26702788      20.33826859  F        3
Al      11.45512986       8.26702788      20.33826859  F        3
Al      14.31891232       8.26702788      20.33826859  F        3
Al      -0.00000000       1.65340558      22.67653718  T        2
Al       2.86378246       1.65340558      22.67653718  T        2
Al       5.72756493       1.65340558      22.67653718  T        2
Al       8.59134739       1.65340558      22.67653718  T        2
Al       1.43189123       4.13351394      22.67653718  T        2
Al       4.29567370       4.13351394      22.67653718  T        2
Al       7.15945616       4.13351394      22.67653718  T        2
Al      10.02323862       4.13351394      22.67653718  T        2
Al       2.86378246       6.61362231      22.67653718  T        2
Al       5.72756493       6.61362231      22.67653718  T        2
Al       8.59134739       6.61362231      22.67653718  T        2
Al      11.45512986       6.61362231      22.67653718  T        2
Al       4.29567370       9.09373067      22.67653718  T        2
Al       7.15945616       9.09373067      22.67653718  T        2
Al      10.02323862       9.09373067      22.67653718  T        2
Al      12.88702109       9.09373067      22.67653718  T        2
Al       0.00000000       0.00000000      25.01480577  T        1
Al       2.86378246       0.00000000      25.01480577  T        1
Al       5.72756493       0.00000000      25.01480577  T        1
Al       8.59134739       0.00000000      25.01480577  T        1
Al       1.43189123       2.48010836      25.01480577  T        1
Al       4.29567370       2.48010836      25.01480577  T        1
Al       7.15945616       2.48010836      25.01480577  T        1
Al      10.02323862       2.48010836      25.01480577  T        1
Al       2.86378246       4.96021673      25.01480577  T        1
Al       5.72756493       4.96021673      25.01480577  T        1
Al       8.59134739       4.96021673      25.01480577  T        1
Al      11.45512986       4.96021673      25.01480577  T        1
Al       4.29567370       7.44032509      25.01480577  T        1
Al       7.15945616       7.44032509      25.01480577  T        1
Al      10.02323862       7.44032509      25.01480577  T        1
Al      12.88702109       7.44032509      25.01480577  T        1
O        6.68215908       4.96021673      28.21480577  T        0
H        6.68215908       4.19697773      28.81111477  T        0
H        6.68215908       5.72345573      28.81111477  T        0
67
Lattice="11.45512985522207 0.0 0.0 5.727564927611035 9.92043345827187 0.0 0.0 0.0 43.01480577065395" Properties=species:S:1:pos:R:3:move_mask:L:1:tags:I:1 surface_element=Al miller="_JSON [1, 1, 1]" slab_size="_JSON [4, 4, 4]" vacuum_angstrom=18.0 fixed_layers=2 fixed_atom_indices="_JSON [0, 1, 2, 3, 4, 5, 6, 7, 8, 9, 10, 11, 12, 13, 14, 15, 16, 17, 18, 19, 20, 21, 22, 23, 24, 25, 26, 27, 28, 29, 30, 31]" system_name=al111_h2o adsorbate=H2O site=fcc orientation=dipole_up height_angstrom=2.0 structure_id=83801b2032017f8f pbc="T T T"
Al       0.00000000       0.00000000      18.00000000  F        4
Al       2.86378246       0.00000000      18.00000000  F        4
Al       5.72756493       0.00000000      18.00000000  F        4
Al       8.59134739       0.00000000      18.00000000  F        4
Al       1.43189123       2.48010836      18.00000000  F        4
Al       4.29567370       2.48010836      18.00000000  F        4
Al       7.15945616       2.48010836      18.00000000  F        4
Al      10.02323862       2.48010836      18.00000000  F        4
Al       2.86378246       4.96021673      18.00000000  F        4
Al       5.72756493       4.96021673      18.00000000  F        4
Al       8.59134739       4.96021673      18.00000000  F        4
Al      11.45512986       4.96021673      18.00000000  F        4
Al       4.29567370       7.44032509      18.00000000  F        4
Al       7.15945616       7.44032509      18.00000000  F        4
Al      10.02323862       7.44032509      18.00000000  F        4
Al      12.88702109       7.44032509      18.00000000  F        4
Al       1.43189123       0.82670279      20.33826859  F        3
Al       4.29567370       0.82670279      20.33826859  F        3
Al       7.15945616       0.82670279      20.33826859  F        3
Al      10.02323862       0.82670279      20.33826859  F        3
Al       2.86378246       3.30681115      20.33826859  F        3
Al       5.72756493       3.30681115      20.33826859  F        3
Al       8.59134739       3.30681115      20.33826859  F        3
Al      11.45512986       3.30681115      20.33826859  F        3
Al       4.29567370       5.78691952      20.33826859  F        3
Al       7.15945616       5.78691952      20.33826859  F        3
Al      10.02323862       5.78691952      20.33826859  F        3
Al      12.88702109       5.78691952      20.33826859  F        3
Al       5.72756493       8.26702788      20.33826859  F        3
Al       8.59134739       8.26702788      20.33826859  F        3
Al      11.45512986       8.26702788      20.33826859  F        3
Al      14.31891232       8.26702788      20.33826859  F        3
Al      -0.00000000       1.65340558      22.67653718  T        2
Al       2.86378246       1.65340558      22.67653718  T        2
Al       5.72756493       1.65340558      22.67653718  T        2
Al       8.59134739       1.65340558      22.67653718  T        2
Al       1.43189123       4.13351394      22.67653718  T        2
Al       4.29567370       4.13351394      22.67653718  T        2
Al       7.15945616       4.13351394      22.67653718  T        2
Al      10.02323862       4.13351394      22.67653718  T        2
Al       2.86378246       6.61362231      22.67653718  T        2
Al       5.72756493       6.61362231      22.67653718  T        2
Al       8.59134739       6.61362231      22.67653718  T        2
Al      11.45512986       6.61362231      22.67653718  T        2
Al       4.29567370       9.09373067      22.67653718  T        2
Al       7.15945616       9.09373067      22.67653718  T        2
Al      10.02323862       9.09373067      22.67653718  T        2
Al      12.88702109       9.09373067      22.67653718  T        2
Al       0.00000000       0.00000000      25.01480577  T        1
Al       2.86378246       0.00000000      25.01480577  T        1
Al       5.72756493       0.00000000      25.01480577  T        1
Al       8.59134739       0.00000000      25.01480577  T        1
Al       1.43189123       2.48010836      25.01480577  T        1
Al       4.29567370       2.48010836      25.01480577  T        1
Al       7.15945616       2.48010836      25.01480577  T        1
Al      10.02323862       2.48010836      25.01480577  T        1
Al       2.86378246       4.96021673      25.01480577  T        1
Al       5.72756493       4.96021673      25.01480577  T        1
Al       8.59134739       4.96021673      25.01480577  T        1
Al      11.45512986       4.96021673      25.01480577  T        1
Al       4.29567370       7.44032509      25.01480577  T        1
Al       7.15945616       7.44032509      25.01480577  T        1
Al      10.02323862       7.44032509      25.01480577  T        1
Al      12.88702109       7.44032509      25.01480577  T        1
O        6.68215908       4.96021673      27.01480577  T        0
H        6.68215908       5.72345573      26.41849677  T        0
H        6.68215908       4.19697773      26.41849677  T        0
67
Lattice="11.45512985522207 0.0 0.0 5.727564927611035 9.92043345827187 0.0 0.0 0.0 43.01480577065395" Properties=species:S:1:pos:R:3:move_mask:L:1:tags:I:1 surface_element=Al miller="_JSON [1, 1, 1]" slab_size="_JSON [4, 4, 4]" vacuum_angstrom=18.0 fixed_layers=2 fixed_atom_indices="_JSON [0, 1, 2, 3, 4, 5, 6, 7, 8, 9, 10, 11, 12, 13, 14, 15, 16, 17, 18, 19, 20, 21, 22, 23, 24, 25, 26, 27, 28, 29, 30, 31]" system_name=al111_h2o adsorbate=H2O site=fcc orientation=dipole_up height_angstrom=2.4 structure_id=695b86b959d47d45 pbc="T T T"
Al       0.00000000       0.00000000      18.00000000  F        4
Al       2.86378246       0.00000000      18.00000000  F        4
Al       5.72756493       0.00000000      18.00000000  F        4
Al       8.59134739       0.00000000      18.00000000  F        4
Al       1.43189123       2.48010836      18.00000000  F        4
Al       4.29567370       2.48010836      18.00000000  F        4
Al       7.15945616       2.48010836      18.00000000  F        4
Al      10.02323862       2.48010836      18.00000000  F        4
Al       2.86378246       4.96021673      18.00000000  F        4
Al       5.72756493       4.96021673      18.00000000  F        4
Al       8.59134739       4.96021673      18.00000000  F        4
Al      11.45512986       4.96021673      18.00000000  F        4
Al       4.29567370       7.44032509      18.00000000  F        4
Al       7.15945616       7.44032509      18.00000000  F        4
Al      10.02323862       7.44032509      18.00000000  F        4
Al      12.88702109       7.44032509      18.00000000  F        4
Al       1.43189123       0.82670279      20.33826859  F        3
Al       4.29567370       0.82670279      20.33826859  F        3
Al       7.15945616       0.82670279      20.33826859  F        3
Al      10.02323862       0.82670279      20.33826859  F        3
Al       2.86378246       3.30681115      20.33826859  F        3
Al       5.72756493       3.30681115      20.33826859  F        3
Al       8.59134739       3.30681115      20.33826859  F        3
Al      11.45512986       3.30681115      20.33826859  F        3
Al       4.29567370       5.78691952      20.33826859  F        3
Al       7.15945616       5.78691952      20.33826859  F        3
Al      10.02323862       5.78691952      20.33826859  F        3
Al      12.88702109       5.78691952      20.33826859  F        3
Al       5.72756493       8.26702788      20.33826859  F        3
Al       8.59134739       8.26702788      20.33826859  F        3
Al      11.45512986       8.26702788      20.33826859  F        3
Al      14.31891232       8.26702788      20.33826859  F        3
Al      -0.00000000       1.65340558      22.67653718  T        2
Al       2.86378246       1.65340558      22.67653718  T        2
Al       5.72756493       1.65340558      22.67653718  T        2
Al       8.59134739       1.65340558      22.67653718  T        2
Al       1.43189123       4.13351394      22.67653718  T        2
Al       4.29567370       4.13351394      22.67653718  T        2
Al       7.15945616       4.13351394      22.67653718  T        2
Al      10.02323862       4.13351394      22.67653718  T        2
Al       2.86378246       6.61362231      22.67653718  T        2
Al       5.72756493       6.61362231      22.67653718  T        2
Al       8.59134739       6.61362231      22.67653718  T        2
Al      11.45512986       6.61362231      22.67653718  T        2
Al       4.29567370       9.09373067      22.67653718  T        2
Al       7.15945616       9.09373067      22.67653718  T        2
Al      10.02323862       9.09373067      22.67653718  T        2
Al      12.88702109       9.09373067      22.67653718  T        2
Al       0.00000000       0.00000000      25.01480577  T        1
Al       2.86378246       0.00000000      25.01480577  T        1
Al       5.72756493       0.00000000      25.01480577  T        1
Al       8.59134739       0.00000000      25.01480577  T        1
Al       1.43189123       2.48010836      25.01480577  T        1
Al       4.29567370       2.48010836      25.01480577  T        1
Al       7.15945616       2.48010836      25.01480577  T        1
Al      10.02323862       2.48010836      25.01480577  T        1
Al       2.86378246       4.96021673      25.01480577  T        1
Al       5.72756493       4.96021673      25.01480577  T        1
Al       8.59134739       4.96021673      25.01480577  T        1
Al      11.45512986       4.96021673      25.01480577  T        1
Al       4.29567370       7.44032509      25.01480577  T        1
Al       7.15945616       7.44032509      25.01480577  T        1
Al      10.02323862       7.44032509      25.01480577  T        1
Al      12.88702109       7.44032509      25.01480577  T        1
O        6.68215908       4.96021673      27.41480577  T        0
H        6.68215908       5.72345573      26.81849677  T        0
H        6.68215908       4.19697773      26.81849677  T        0
67
Lattice="11.45512985522207 0.0 0.0 5.727564927611035 9.92043345827187 0.0 0.0 0.0 43.01480577065395" Properties=species:S:1:pos:R:3:move_mask:L:1:tags:I:1 surface_element=Al miller="_JSON [1, 1, 1]" slab_size="_JSON [4, 4, 4]" vacuum_angstrom=18.0 fixed_layers=2 fixed_atom_indices="_JSON [0, 1, 2, 3, 4, 5, 6, 7, 8, 9, 10, 11, 12, 13, 14, 15, 16, 17, 18, 19, 20, 21, 22, 23, 24, 25, 26, 27, 28, 29, 30, 31]" system_name=al111_h2o adsorbate=H2O site=fcc orientation=dipole_up height_angstrom=2.8 structure_id=332893d200f6a184 pbc="T T T"
Al       0.00000000       0.00000000      18.00000000  F        4
Al       2.86378246       0.00000000      18.00000000  F        4
Al       5.72756493       0.00000000      18.00000000  F        4
Al       8.59134739       0.00000000      18.00000000  F        4
Al       1.43189123       2.48010836      18.00000000  F        4
Al       4.29567370       2.48010836      18.00000000  F        4
Al       7.15945616       2.48010836      18.00000000  F        4
Al      10.02323862       2.48010836      18.00000000  F        4
Al       2.86378246       4.96021673      18.00000000  F        4
Al       5.72756493       4.96021673      18.00000000  F        4
Al       8.59134739       4.96021673      18.00000000  F        4
Al      11.45512986       4.96021673      18.00000000  F        4
Al       4.29567370       7.44032509      18.00000000  F        4
Al       7.15945616       7.44032509      18.00000000  F        4
Al      10.02323862       7.44032509      18.00000000  F        4
Al      12.88702109       7.44032509      18.00000000  F        4
Al       1.43189123       0.82670279      20.33826859  F        3
Al       4.29567370       0.82670279      20.33826859  F        3
Al       7.15945616       0.82670279      20.33826859  F        3
Al      10.02323862       0.82670279      20.33826859  F        3
Al       2.86378246       3.30681115      20.33826859  F        3
Al       5.72756493       3.30681115      20.33826859  F        3
Al       8.59134739       3.30681115      20.33826859  F        3
Al      11.45512986       3.30681115      20.33826859  F        3
Al       4.29567370       5.78691952      20.33826859  F        3
Al       7.15945616       5.78691952      20.33826859  F        3
Al      10.02323862       5.78691952      20.33826859  F        3
Al      12.88702109       5.78691952      20.33826859  F        3
Al       5.72756493       8.26702788      20.33826859  F        3
Al       8.59134739       8.26702788      20.33826859  F        3
Al      11.45512986       8.26702788      20.33826859  F        3
Al      14.31891232       8.26702788      20.33826859  F        3
Al      -0.00000000       1.65340558      22.67653718  T        2
Al       2.86378246       1.65340558      22.67653718  T        2
Al       5.72756493       1.65340558      22.67653718  T        2
Al       8.59134739       1.65340558      22.67653718  T        2
Al       1.43189123       4.13351394      22.67653718  T        2
Al       4.29567370       4.13351394      22.67653718  T        2
Al       7.15945616       4.13351394      22.67653718  T        2
Al      10.02323862       4.13351394      22.67653718  T        2
Al       2.86378246       6.61362231      22.67653718  T        2
Al       5.72756493       6.61362231      22.67653718  T        2
Al       8.59134739       6.61362231      22.67653718  T        2
Al      11.45512986       6.61362231      22.67653718  T        2
Al       4.29567370       9.09373067      22.67653718  T        2
Al       7.15945616       9.09373067      22.67653718  T        2
Al      10.02323862       9.09373067      22.67653718  T        2
Al      12.88702109       9.09373067      22.67653718  T        2
Al       0.00000000       0.00000000      25.01480577  T        1
Al       2.86378246       0.00000000      25.01480577  T        1
Al       5.72756493       0.00000000      25.01480577  T        1
Al       8.59134739       0.00000000      25.01480577  T        1
Al       1.43189123       2.48010836      25.01480577  T        1
Al       4.29567370       2.48010836      25.01480577  T        1
Al       7.15945616       2.48010836      25.01480577  T        1
Al      10.02323862       2.48010836      25.01480577  T        1
Al       2.86378246       4.96021673      25.01480577  T        1
Al       5.72756493       4.96021673      25.01480577  T        1
Al       8.59134739       4.96021673      25.01480577  T        1
Al      11.45512986       4.96021673      25.01480577  T        1
Al       4.29567370       7.44032509      25.01480577  T        1
Al       7.15945616       7.44032509      25.01480577  T        1
Al      10.02323862       7.44032509      25.01480577  T        1
Al      12.88702109       7.44032509      25.01480577  T        1
O        6.68215908       4.96021673      27.81480577  T        0
H        6.68215908       5.72345573      27.21849677  T        0
H        6.68215908       4.19697773      27.21849677  T        0
67
Lattice="11.45512985522207 0.0 0.0 5.727564927611035 9.92043345827187 0.0 0.0 0.0 43.01480577065395" Properties=species:S:1:pos:R:3:move_mask:L:1:tags:I:1 surface_element=Al miller="_JSON [1, 1, 1]" slab_size="_JSON [4, 4, 4]" vacuum_angstrom=18.0 fixed_layers=2 fixed_atom_indices="_JSON [0, 1, 2, 3, 4, 5, 6, 7, 8, 9, 10, 11, 12, 13, 14, 15, 16, 17, 18, 19, 20, 21, 22, 23, 24, 25, 26, 27, 28, 29, 30, 31]" system_name=al111_h2o adsorbate=H2O site=fcc orientation=dipole_up height_angstrom=3.2 structure_id=b17380574b5fc579 pbc="T T T"
Al       0.00000000       0.00000000      18.00000000  F        4
Al       2.86378246       0.00000000      18.00000000  F        4
Al       5.72756493       0.00000000      18.00000000  F        4
Al       8.59134739       0.00000000      18.00000000  F        4
Al       1.43189123       2.48010836      18.00000000  F        4
Al       4.29567370       2.48010836      18.00000000  F        4
Al       7.15945616       2.48010836      18.00000000  F        4
Al      10.02323862       2.48010836      18.00000000  F        4
Al       2.86378246       4.96021673      18.00000000  F        4
Al       5.72756493       4.96021673      18.00000000  F        4
Al       8.59134739       4.96021673      18.00000000  F        4
Al      11.45512986       4.96021673      18.00000000  F        4
Al       4.29567370       7.44032509      18.00000000  F        4
Al       7.15945616       7.44032509      18.00000000  F        4
Al      10.02323862       7.44032509      18.00000000  F        4
Al      12.88702109       7.44032509      18.00000000  F        4
Al       1.43189123       0.82670279      20.33826859  F        3
Al       4.29567370       0.82670279      20.33826859  F        3
Al       7.15945616       0.82670279      20.33826859  F        3
Al      10.02323862       0.82670279      20.33826859  F        3
Al       2.86378246       3.30681115      20.33826859  F        3
Al       5.72756493       3.30681115      20.33826859  F        3
Al       8.59134739       3.30681115      20.33826859  F        3
Al      11.45512986       3.30681115      20.33826859  F        3
Al       4.29567370       5.78691952      20.33826859  F        3
Al       7.15945616       5.78691952      20.33826859  F        3
Al      10.02323862       5.78691952      20.33826859  F        3
Al      12.88702109       5.78691952      20.33826859  F        3
Al       5.72756493       8.26702788      20.33826859  F        3
Al       8.59134739       8.26702788      20.33826859  F        3
Al      11.45512986       8.26702788      20.33826859  F        3
Al      14.31891232       8.26702788      20.33826859  F        3
Al      -0.00000000       1.65340558      22.67653718  T        2
Al       2.86378246       1.65340558      22.67653718  T        2
Al       5.72756493       1.65340558      22.67653718  T        2
Al       8.59134739       1.65340558      22.67653718  T        2
Al       1.43189123       4.13351394      22.67653718  T        2
Al       4.29567370       4.13351394      22.67653718  T        2
Al       7.15945616       4.13351394      22.67653718  T        2
Al      10.02323862       4.13351394      22.67653718  T        2
Al       2.86378246       6.61362231      22.67653718  T        2
Al       5.72756493       6.61362231      22.67653718  T        2
Al       8.59134739       6.61362231      22.67653718  T        2
Al      11.45512986       6.61362231      22.67653718  T        2
Al       4.29567370       9.09373067      22.67653718  T        2
Al       7.15945616       9.09373067      22.67653718  T        2
Al      10.02323862       9.09373067      22.67653718  T        2
Al      12.88702109       9.09373067      22.67653718  T        2
Al       0.00000000       0.00000000      25.01480577  T        1
Al       2.86378246       0.00000000      25.01480577  T        1
Al       5.72756493       0.00000000      25.01480577  T        1
Al       8.59134739       0.00000000      25.01480577  T        1
Al       1.43189123       2.48010836      25.01480577  T        1
Al       4.29567370       2.48010836      25.01480577  T        1
Al       7.15945616       2.48010836      25.01480577  T        1
Al      10.02323862       2.48010836      25.01480577  T        1
Al       2.86378246       4.96021673      25.01480577  T        1
Al       5.72756493       4.96021673      25.01480577  T        1
Al       8.59134739       4.96021673      25.01480577  T        1
Al      11.45512986       4.96021673      25.01480577  T        1
Al       4.29567370       7.44032509      25.01480577  T        1
Al       7.15945616       7.44032509      25.01480577  T        1
Al      10.02323862       7.44032509      25.01480577  T        1
Al      12.88702109       7.44032509      25.01480577  T        1
O        6.68215908       4.96021673      28.21480577  T        0
H        6.68215908       5.72345573      27.61849677  T        0
H        6.68215908       4.19697773      27.61849677  T        0
67
Lattice="11.45512985522207 0.0 0.0 5.727564927611035 9.92043345827187 0.0 0.0 0.0 43.01480577065395" Properties=species:S:1:pos:R:3:move_mask:L:1:tags:I:1 surface_element=Al miller="_JSON [1, 1, 1]" slab_size="_JSON [4, 4, 4]" vacuum_angstrom=18.0 fixed_layers=2 fixed_atom_indices="_JSON [0, 1, 2, 3, 4, 5, 6, 7, 8, 9, 10, 11, 12, 13, 14, 15, 16, 17, 18, 19, 20, 21, 22, 23, 24, 25, 26, 27, 28, 29, 30, 31]" system_name=al111_h2o adsorbate=H2O site=hcp orientation=flat height_angstrom=2.0 structure_id=56eb5982b8f742f5 pbc="T T T"
Al       0.00000000       0.00000000      18.00000000  F        4
Al       2.86378246       0.00000000      18.00000000  F        4
Al       5.72756493       0.00000000      18.00000000  F        4
Al       8.59134739       0.00000000      18.00000000  F        4
Al       1.43189123       2.48010836      18.00000000  F        4
Al       4.29567370       2.48010836      18.00000000  F        4
Al       7.15945616       2.48010836      18.00000000  F        4
Al      10.02323862       2.48010836      18.00000000  F        4
Al       2.86378246       4.96021673      18.00000000  F        4
Al       5.72756493       4.96021673      18.00000000  F        4
Al       8.59134739       4.96021673      18.00000000  F        4
Al      11.45512986       4.96021673      18.00000000  F        4
Al       4.29567370       7.44032509      18.00000000  F        4
Al       7.15945616       7.44032509      18.00000000  F        4
Al      10.02323862       7.44032509      18.00000000  F        4
Al      12.88702109       7.44032509      18.00000000  F        4
Al       1.43189123       0.82670279      20.33826859  F        3
Al       4.29567370       0.82670279      20.33826859  F        3
Al       7.15945616       0.82670279      20.33826859  F        3
Al      10.02323862       0.82670279      20.33826859  F        3
Al       2.86378246       3.30681115      20.33826859  F        3
Al       5.72756493       3.30681115      20.33826859  F        3
Al       8.59134739       3.30681115      20.33826859  F        3
Al      11.45512986       3.30681115      20.33826859  F        3
Al       4.29567370       5.78691952      20.33826859  F        3
Al       7.15945616       5.78691952      20.33826859  F        3
Al      10.02323862       5.78691952      20.33826859  F        3
Al      12.88702109       5.78691952      20.33826859  F        3
Al       5.72756493       8.26702788      20.33826859  F        3
Al       8.59134739       8.26702788      20.33826859  F        3
Al      11.45512986       8.26702788      20.33826859  F        3
Al      14.31891232       8.26702788      20.33826859  F        3
Al      -0.00000000       1.65340558      22.67653718  T        2
Al       2.86378246       1.65340558      22.67653718  T        2
Al       5.72756493       1.65340558      22.67653718  T        2
Al       8.59134739       1.65340558      22.67653718  T        2
Al       1.43189123       4.13351394      22.67653718  T        2
Al       4.29567370       4.13351394      22.67653718  T        2
Al       7.15945616       4.13351394      22.67653718  T        2
Al      10.02323862       4.13351394      22.67653718  T        2
Al       2.86378246       6.61362231      22.67653718  T        2
Al       5.72756493       6.61362231      22.67653718  T        2
Al       8.59134739       6.61362231      22.67653718  T        2
Al      11.45512986       6.61362231      22.67653718  T        2
Al       4.29567370       9.09373067      22.67653718  T        2
Al       7.15945616       9.09373067      22.67653718  T        2
Al      10.02323862       9.09373067      22.67653718  T        2
Al      12.88702109       9.09373067      22.67653718  T        2
Al       0.00000000       0.00000000      25.01480577  T        1
Al       2.86378246       0.00000000      25.01480577  T        1
Al       5.72756493       0.00000000      25.01480577  T        1
Al       8.59134739       0.00000000      25.01480577  T        1
Al       1.43189123       2.48010836      25.01480577  T        1
Al       4.29567370       2.48010836      25.01480577  T        1
Al       7.15945616       2.48010836      25.01480577  T        1
Al      10.02323862       2.48010836      25.01480577  T        1
Al       2.86378246       4.96021673      25.01480577  T        1
Al       5.72756493       4.96021673      25.01480577  T        1
Al       8.59134739       4.96021673      25.01480577  T        1
Al      11.45512986       4.96021673      25.01480577  T        1
Al       4.29567370       7.44032509      25.01480577  T        1
Al       7.15945616       7.44032509      25.01480577  T        1
Al      10.02323862       7.44032509      25.01480577  T        1
Al      12.88702109       7.44032509      25.01480577  T        1
O        4.77297077       4.96021673      27.01480577  T        0
H        4.17666177       5.72345573      27.01480577  T        0
H        4.17666177       4.19697773      27.01480577  T        0
67
Lattice="11.45512985522207 0.0 0.0 5.727564927611035 9.92043345827187 0.0 0.0 0.0 43.01480577065395" Properties=species:S:1:pos:R:3:move_mask:L:1:tags:I:1 surface_element=Al miller="_JSON [1, 1, 1]" slab_size="_JSON [4, 4, 4]" vacuum_angstrom=18.0 fixed_layers=2 fixed_atom_indices="_JSON [0, 1, 2, 3, 4, 5, 6, 7, 8, 9, 10, 11, 12, 13, 14, 15, 16, 17, 18, 19, 20, 21, 22, 23, 24, 25, 26, 27, 28, 29, 30, 31]" system_name=al111_h2o adsorbate=H2O site=hcp orientation=flat height_angstrom=2.4 structure_id=f27494422d2f4886 pbc="T T T"
Al       0.00000000       0.00000000      18.00000000  F        4
Al       2.86378246       0.00000000      18.00000000  F        4
Al       5.72756493       0.00000000      18.00000000  F        4
Al       8.59134739       0.00000000      18.00000000  F        4
Al       1.43189123       2.48010836      18.00000000  F        4
Al       4.29567370       2.48010836      18.00000000  F        4
Al       7.15945616       2.48010836      18.00000000  F        4
Al      10.02323862       2.48010836      18.00000000  F        4
Al       2.86378246       4.96021673      18.00000000  F        4
Al       5.72756493       4.96021673      18.00000000  F        4
Al       8.59134739       4.96021673      18.00000000  F        4
Al      11.45512986       4.96021673      18.00000000  F        4
Al       4.29567370       7.44032509      18.00000000  F        4
Al       7.15945616       7.44032509      18.00000000  F        4
Al      10.02323862       7.44032509      18.00000000  F        4
Al      12.88702109       7.44032509      18.00000000  F        4
Al       1.43189123       0.82670279      20.33826859  F        3
Al       4.29567370       0.82670279      20.33826859  F        3
Al       7.15945616       0.82670279      20.33826859  F        3
Al      10.02323862       0.82670279      20.33826859  F        3
Al       2.86378246       3.30681115      20.33826859  F        3
Al       5.72756493       3.30681115      20.33826859  F        3
Al       8.59134739       3.30681115      20.33826859  F        3
Al      11.45512986       3.30681115      20.33826859  F        3
Al       4.29567370       5.78691952      20.33826859  F        3
Al       7.15945616       5.78691952      20.33826859  F        3
Al      10.02323862       5.78691952      20.33826859  F        3
Al      12.88702109       5.78691952      20.33826859  F        3
Al       5.72756493       8.26702788      20.33826859  F        3
Al       8.59134739       8.26702788      20.33826859  F        3
Al      11.45512986       8.26702788      20.33826859  F        3
Al      14.31891232       8.26702788      20.33826859  F        3
Al      -0.00000000       1.65340558      22.67653718  T        2
Al       2.86378246       1.65340558      22.67653718  T        2
Al       5.72756493       1.65340558      22.67653718  T        2
Al       8.59134739       1.65340558      22.67653718  T        2
Al       1.43189123       4.13351394      22.67653718  T        2
Al       4.29567370       4.13351394      22.67653718  T        2
Al       7.15945616       4.13351394      22.67653718  T        2
Al      10.02323862       4.13351394      22.67653718  T        2
Al       2.86378246       6.61362231      22.67653718  T        2
Al       5.72756493       6.61362231      22.67653718  T        2
Al       8.59134739       6.61362231      22.67653718  T        2
Al      11.45512986       6.61362231      22.67653718  T        2
Al       4.29567370       9.09373067      22.67653718  T        2
Al       7.15945616       9.09373067      22.67653718  T        2
Al      10.02323862       9.09373067      22.67653718  T        2
Al      12.88702109       9.09373067      22.67653718  T        2
Al       0.00000000       0.00000000      25.01480577  T        1
Al       2.86378246       0.00000000      25.01480577  T        1
Al       5.72756493       0.00000000      25.01480577  T        1
Al       8.59134739       0.00000000      25.01480577  T        1
Al       1.43189123       2.48010836      25.01480577  T        1
Al       4.29567370       2.48010836      25.01480577  T        1
Al       7.15945616       2.48010836      25.01480577  T        1
Al      10.02323862       2.48010836      25.01480577  T        1
Al       2.86378246       4.96021673      25.01480577  T        1
Al       5.72756493       4.96021673      25.01480577  T        1
Al       8.59134739       4.96021673      25.01480577  T        1
Al      11.45512986       4.96021673      25.01480577  T        1
Al       4.29567370       7.44032509      25.01480577  T        1
Al       7.15945616       7.44032509      25.01480577  T        1
Al      10.02323862       7.44032509      25.01480577  T        1
Al      12.88702109       7.44032509      25.01480577  T        1
O        4.77297077       4.96021673      27.41480577  T        0
H        4.17666177       5.72345573      27.41480577  T        0
H        4.17666177       4.19697773      27.41480577  T        0
67
Lattice="11.45512985522207 0.0 0.0 5.727564927611035 9.92043345827187 0.0 0.0 0.0 43.01480577065395" Properties=species:S:1:pos:R:3:move_mask:L:1:tags:I:1 surface_element=Al miller="_JSON [1, 1, 1]" slab_size="_JSON [4, 4, 4]" vacuum_angstrom=18.0 fixed_layers=2 fixed_atom_indices="_JSON [0, 1, 2, 3, 4, 5, 6, 7, 8, 9, 10, 11, 12, 13, 14, 15, 16, 17, 18, 19, 20, 21, 22, 23, 24, 25, 26, 27, 28, 29, 30, 31]" system_name=al111_h2o adsorbate=H2O site=hcp orientation=flat height_angstrom=2.8 structure_id=1965c29da6fdfd53 pbc="T T T"
Al       0.00000000       0.00000000      18.00000000  F        4
Al       2.86378246       0.00000000      18.00000000  F        4
Al       5.72756493       0.00000000      18.00000000  F        4
Al       8.59134739       0.00000000      18.00000000  F        4
Al       1.43189123       2.48010836      18.00000000  F        4
Al       4.29567370       2.48010836      18.00000000  F        4
Al       7.15945616       2.48010836      18.00000000  F        4
Al      10.02323862       2.48010836      18.00000000  F        4
Al       2.86378246       4.96021673      18.00000000  F        4
Al       5.72756493       4.96021673      18.00000000  F        4
Al       8.59134739       4.96021673      18.00000000  F        4
Al      11.45512986       4.96021673      18.00000000  F        4
Al       4.29567370       7.44032509      18.00000000  F        4
Al       7.15945616       7.44032509      18.00000000  F        4
Al      10.02323862       7.44032509      18.00000000  F        4
Al      12.88702109       7.44032509      18.00000000  F        4
Al       1.43189123       0.82670279      20.33826859  F        3
Al       4.29567370       0.82670279      20.33826859  F        3
Al       7.15945616       0.82670279      20.33826859  F        3
Al      10.02323862       0.82670279      20.33826859  F        3
Al       2.86378246       3.30681115      20.33826859  F        3
Al       5.72756493       3.30681115      20.33826859  F        3
Al       8.59134739       3.30681115      20.33826859  F        3
Al      11.45512986       3.30681115      20.33826859  F        3
Al       4.29567370       5.78691952      20.33826859  F        3
Al       7.15945616       5.78691952      20.33826859  F        3
Al      10.02323862       5.78691952      20.33826859  F        3
Al      12.88702109       5.78691952      20.33826859  F        3
Al       5.72756493       8.26702788      20.33826859  F        3
Al       8.59134739       8.26702788      20.33826859  F        3
Al      11.45512986       8.26702788      20.33826859  F        3
Al      14.31891232       8.26702788      20.33826859  F        3
Al      -0.00000000       1.65340558      22.67653718  T        2
Al       2.86378246       1.65340558      22.67653718  T        2
Al       5.72756493       1.65340558      22.67653718  T        2
Al       8.59134739       1.65340558      22.67653718  T        2
Al       1.43189123       4.13351394      22.67653718  T        2
Al       4.29567370       4.13351394      22.67653718  T        2
Al       7.15945616       4.13351394      22.67653718  T        2
Al      10.02323862       4.13351394      22.67653718  T        2
Al       2.86378246       6.61362231      22.67653718  T        2
Al       5.72756493       6.61362231      22.67653718  T        2
Al       8.59134739       6.61362231      22.67653718  T        2
Al      11.45512986       6.61362231      22.67653718  T        2
Al       4.29567370       9.09373067      22.67653718  T        2
Al       7.15945616       9.09373067      22.67653718  T        2
Al      10.02323862       9.09373067      22.67653718  T        2
Al      12.88702109       9.09373067      22.67653718  T        2
Al       0.00000000       0.00000000      25.01480577  T        1
Al       2.86378246       0.00000000      25.01480577  T        1
Al       5.72756493       0.00000000      25.01480577  T        1
Al       8.59134739       0.00000000      25.01480577  T        1
Al       1.43189123       2.48010836      25.01480577  T        1
Al       4.29567370       2.48010836      25.01480577  T        1
Al       7.15945616       2.48010836      25.01480577  T        1
Al      10.02323862       2.48010836      25.01480577  T        1
Al       2.86378246       4.96021673      25.01480577  T        1
Al       5.72756493       4.96021673      25.01480577  T        1
Al       8.59134739       4.96021673      25.01480577  T        1
Al      11.45512986       4.96021673      25.01480577  T        1
Al       4.29567370       7.44032509      25.01480577  T        1
Al       7.15945616       7.44032509      25.01480577  T        1
Al      10.02323862       7.44032509      25.01480577  T        1
Al      12.88702109       7.44032509      25.01480577  T        1
O        4.77297077       4.96021673      27.81480577  T        0
H        4.17666177       5.72345573      27.81480577  T        0
H        4.17666177       4.19697773      27.81480577  T        0
67
Lattice="11.45512985522207 0.0 0.0 5.727564927611035 9.92043345827187 0.0 0.0 0.0 43.01480577065395" Properties=species:S:1:pos:R:3:move_mask:L:1:tags:I:1 surface_element=Al miller="_JSON [1, 1, 1]" slab_size="_JSON [4, 4, 4]" vacuum_angstrom=18.0 fixed_layers=2 fixed_atom_indices="_JSON [0, 1, 2, 3, 4, 5, 6, 7, 8, 9, 10, 11, 12, 13, 14, 15, 16, 17, 18, 19, 20, 21, 22, 23, 24, 25, 26, 27, 28, 29, 30, 31]" system_name=al111_h2o adsorbate=H2O site=hcp orientation=flat height_angstrom=3.2 structure_id=716b8a73aa4dcc60 pbc="T T T"
Al       0.00000000       0.00000000      18.00000000  F        4
Al       2.86378246       0.00000000      18.00000000  F        4
Al       5.72756493       0.00000000      18.00000000  F        4
Al       8.59134739       0.00000000      18.00000000  F        4
Al       1.43189123       2.48010836      18.00000000  F        4
Al       4.29567370       2.48010836      18.00000000  F        4
Al       7.15945616       2.48010836      18.00000000  F        4
Al      10.02323862       2.48010836      18.00000000  F        4
Al       2.86378246       4.96021673      18.00000000  F        4
Al       5.72756493       4.96021673      18.00000000  F        4
Al       8.59134739       4.96021673      18.00000000  F        4
Al      11.45512986       4.96021673      18.00000000  F        4
Al       4.29567370       7.44032509      18.00000000  F        4
Al       7.15945616       7.44032509      18.00000000  F        4
Al      10.02323862       7.44032509      18.00000000  F        4
Al      12.88702109       7.44032509      18.00000000  F        4
Al       1.43189123       0.82670279      20.33826859  F        3
Al       4.29567370       0.82670279      20.33826859  F        3
Al       7.15945616       0.82670279      20.33826859  F        3
Al      10.02323862       0.82670279      20.33826859  F        3
Al       2.86378246       3.30681115      20.33826859  F        3
Al       5.72756493       3.30681115      20.33826859  F        3
Al       8.59134739       3.30681115      20.33826859  F        3
Al      11.45512986       3.30681115      20.33826859  F        3
Al       4.29567370       5.78691952      20.33826859  F        3
Al       7.15945616       5.78691952      20.33826859  F        3
Al      10.02323862       5.78691952      20.33826859  F        3
Al      12.88702109       5.78691952      20.33826859  F        3
Al       5.72756493       8.26702788      20.33826859  F        3
Al       8.59134739       8.26702788      20.33826859  F        3
Al      11.45512986       8.26702788      20.33826859  F        3
Al      14.31891232       8.26702788      20.33826859  F        3
Al      -0.00000000       1.65340558      22.67653718  T        2
Al       2.86378246       1.65340558      22.67653718  T        2
Al       5.72756493       1.65340558      22.67653718  T        2
Al       8.59134739       1.65340558      22.67653718  T        2
Al       1.43189123       4.13351394      22.67653718  T        2
Al       4.29567370       4.13351394      22.67653718  T        2
Al       7.15945616       4.13351394      22.67653718  T        2
Al      10.02323862       4.13351394      22.67653718  T        2
Al       2.86378246       6.61362231      22.67653718  T        2
Al       5.72756493       6.61362231      22.67653718  T        2
Al       8.59134739       6.61362231      22.67653718  T        2
Al      11.45512986       6.61362231      22.67653718  T        2
Al       4.29567370       9.09373067      22.67653718  T        2
Al       7.15945616       9.09373067      22.67653718  T        2
Al      10.02323862       9.09373067      22.67653718  T        2
Al      12.88702109       9.09373067      22.67653718  T        2
Al       0.00000000       0.00000000      25.01480577  T        1
Al       2.86378246       0.00000000      25.01480577  T        1
Al       5.72756493       0.00000000      25.01480577  T        1
Al       8.59134739       0.00000000      25.01480577  T        1
Al       1.43189123       2.48010836      25.01480577  T        1
Al       4.29567370       2.48010836      25.01480577  T        1
Al       7.15945616       2.48010836      25.01480577  T        1
Al      10.02323862       2.48010836      25.01480577  T        1
Al       2.86378246       4.96021673      25.01480577  T        1
Al       5.72756493       4.96021673      25.01480577  T        1
Al       8.59134739       4.96021673      25.01480577  T        1
Al      11.45512986       4.96021673      25.01480577  T        1
Al       4.29567370       7.44032509      25.01480577  T        1
Al       7.15945616       7.44032509      25.01480577  T        1
Al      10.02323862       7.44032509      25.01480577  T        1
Al      12.88702109       7.44032509      25.01480577  T        1
O        4.77297077       4.96021673      28.21480577  T        0
H        4.17666177       5.72345573      28.21480577  T        0
H        4.17666177       4.19697773      28.21480577  T        0
67
Lattice="11.45512985522207 0.0 0.0 5.727564927611035 9.92043345827187 0.0 0.0 0.0 43.01480577065395" Properties=species:S:1:pos:R:3:move_mask:L:1:tags:I:1 surface_element=Al miller="_JSON [1, 1, 1]" slab_size="_JSON [4, 4, 4]" vacuum_angstrom=18.0 fixed_layers=2 fixed_atom_indices="_JSON [0, 1, 2, 3, 4, 5, 6, 7, 8, 9, 10, 11, 12, 13, 14, 15, 16, 17, 18, 19, 20, 21, 22, 23, 24, 25, 26, 27, 28, 29, 30, 31]" system_name=al111_h2o adsorbate=H2O site=fcc orientation=dipole_down height_angstrom=2.0 structure_id=cffe3ebd045c9c70 pbc="T T T"
Al       0.00000000       0.00000000      18.00000000  F        4
Al       2.86378246       0.00000000      18.00000000  F        4
Al       5.72756493       0.00000000      18.00000000  F        4
Al       8.59134739       0.00000000      18.00000000  F        4
Al       1.43189123       2.48010836      18.00000000  F        4
Al       4.29567370       2.48010836      18.00000000  F        4
Al       7.15945616       2.48010836      18.00000000  F        4
Al      10.02323862       2.48010836      18.00000000  F        4
Al       2.86378246       4.96021673      18.00000000  F        4
Al       5.72756493       4.96021673      18.00000000  F        4
Al       8.59134739       4.96021673      18.00000000  F        4
Al      11.45512986       4.96021673      18.00000000  F        4
Al       4.29567370       7.44032509      18.00000000  F        4
Al       7.15945616       7.44032509      18.00000000  F        4
Al      10.02323862       7.44032509      18.00000000  F        4
Al      12.88702109       7.44032509      18.00000000  F        4
Al       1.43189123       0.82670279      20.33826859  F        3
Al       4.29567370       0.82670279      20.33826859  F        3
Al       7.15945616       0.82670279      20.33826859  F        3
Al      10.02323862       0.82670279      20.33826859  F        3
Al       2.86378246       3.30681115      20.33826859  F        3
Al       5.72756493       3.30681115      20.33826859  F        3
Al       8.59134739       3.30681115      20.33826859  F        3
Al      11.45512986       3.30681115      20.33826859  F        3
Al       4.29567370       5.78691952      20.33826859  F        3
Al       7.15945616       5.78691952      20.33826859  F        3
Al      10.02323862       5.78691952      20.33826859  F        3
Al      12.88702109       5.78691952      20.33826859  F        3
Al       5.72756493       8.26702788      20.33826859  F        3
Al       8.59134739       8.26702788      20.33826859  F        3
Al      11.45512986       8.26702788      20.33826859  F        3
Al      14.31891232       8.26702788      20.33826859  F        3
Al      -0.00000000       1.65340558      22.67653718  T        2
Al       2.86378246       1.65340558      22.67653718  T        2
Al       5.72756493       1.65340558      22.67653718  T        2
Al       8.59134739       1.65340558      22.67653718  T        2
Al       1.43189123       4.13351394      22.67653718  T        2
Al       4.29567370       4.13351394      22.67653718  T        2
Al       7.15945616       4.13351394      22.67653718  T        2
Al      10.02323862       4.13351394      22.67653718  T        2
Al       2.86378246       6.61362231      22.67653718  T        2
Al       5.72756493       6.61362231      22.67653718  T        2
Al       8.59134739       6.61362231      22.67653718  T        2
Al      11.45512986       6.61362231      22.67653718  T        2
Al       4.29567370       9.09373067      22.67653718  T        2
Al       7.15945616       9.09373067      22.67653718  T        2
Al      10.02323862       9.09373067      22.67653718  T        2
Al      12.88702109       9.09373067      22.67653718  T        2
Al       0.00000000       0.00000000      25.01480577  T        1
Al       2.86378246       0.00000000      25.01480577  T        1
Al       5.72756493       0.00000000      25.01480577  T        1
Al       8.59134739       0.00000000      25.01480577  T        1
Al       1.43189123       2.48010836      25.01480577  T        1
Al       4.29567370       2.48010836      25.01480577  T        1
Al       7.15945616       2.48010836      25.01480577  T        1
Al      10.02323862       2.48010836      25.01480577  T        1
Al       2.86378246       4.96021673      25.01480577  T        1
Al       5.72756493       4.96021673      25.01480577  T        1
Al       8.59134739       4.96021673      25.01480577  T        1
Al      11.45512986       4.96021673      25.01480577  T        1
Al       4.29567370       7.44032509      25.01480577  T        1
Al       7.15945616       7.44032509      25.01480577  T        1
Al      10.02323862       7.44032509      25.01480577  T        1
Al      12.88702109       7.44032509      25.01480577  T        1
O        5.25026785       4.13351394      27.01480577  T        0
H        5.25026785       3.37027494      27.61111477  T        0
H        5.25026785       4.89675294      27.61111477  T        0
67
Lattice="11.45512985522207 0.0 0.0 5.727564927611035 9.92043345827187 0.0 0.0 0.0 43.01480577065395" Properties=species:S:1:pos:R:3:move_mask:L:1:tags:I:1 surface_element=Al miller="_JSON [1, 1, 1]" slab_size="_JSON [4, 4, 4]" vacuum_angstrom=18.0 fixed_layers=2 fixed_atom_indices="_JSON [0, 1, 2, 3, 4, 5, 6, 7, 8, 9, 10, 11, 12, 13, 14, 15, 16, 17, 18, 19, 20, 21, 22, 23, 24, 25, 26, 27, 28, 29, 30, 31]" system_name=al111_h2o adsorbate=H2O site=fcc orientation=dipole_down height_angstrom=2.4 structure_id=de873c3a9ef3ffe0 pbc="T T T"
Al       0.00000000       0.00000000      18.00000000  F        4
Al       2.86378246       0.00000000      18.00000000  F        4
Al       5.72756493       0.00000000      18.00000000  F        4
Al       8.59134739       0.00000000      18.00000000  F        4
Al       1.43189123       2.48010836      18.00000000  F        4
Al       4.29567370       2.48010836      18.00000000  F        4
Al       7.15945616       2.48010836      18.00000000  F        4
Al      10.02323862       2.48010836      18.00000000  F        4
Al       2.86378246       4.96021673      18.00000000  F        4
Al       5.72756493       4.96021673      18.00000000  F        4
Al       8.59134739       4.96021673      18.00000000  F        4
Al      11.45512986       4.96021673      18.00000000  F        4
Al       4.29567370       7.44032509      18.00000000  F        4
Al       7.15945616       7.44032509      18.00000000  F        4
Al      10.02323862       7.44032509      18.00000000  F        4
Al      12.88702109       7.44032509      18.00000000  F        4
Al       1.43189123       0.82670279      20.33826859  F        3
Al       4.29567370       0.82670279      20.33826859  F        3
Al       7.15945616       0.82670279      20.33826859  F        3
Al      10.02323862       0.82670279      20.33826859  F        3
Al       2.86378246       3.30681115      20.33826859  F        3
Al       5.72756493       3.30681115      20.33826859  F        3
Al       8.59134739       3.30681115      20.33826859  F        3
Al      11.45512986       3.30681115      20.33826859  F        3
Al       4.29567370       5.78691952      20.33826859  F        3
Al       7.15945616       5.78691952      20.33826859  F        3
Al      10.02323862       5.78691952      20.33826859  F        3
Al      12.88702109       5.78691952      20.33826859  F        3
Al       5.72756493       8.26702788      20.33826859  F        3
Al       8.59134739       8.26702788      20.33826859  F        3
Al      11.45512986       8.26702788      20.33826859  F        3
Al      14.31891232       8.26702788      20.33826859  F        3
Al      -0.00000000       1.65340558      22.67653718  T        2
Al       2.86378246       1.65340558      22.67653718  T        2
Al       5.72756493       1.65340558      22.67653718  T        2
Al       8.59134739       1.65340558      22.67653718  T        2
Al       1.43189123       4.13351394      22.67653718  T        2
Al       4.29567370       4.13351394      22.67653718  T        2
Al       7.15945616       4.13351394      22.67653718  T        2
Al      10.02323862       4.13351394      22.67653718  T        2
Al       2.86378246       6.61362231      22.67653718  T        2
Al       5.72756493       6.61362231      22.67653718  T        2
Al       8.59134739       6.61362231      22.67653718  T        2
Al      11.45512986       6.61362231      22.67653718  T        2
Al       4.29567370       9.09373067      22.67653718  T        2
Al       7.15945616       9.09373067      22.67653718  T        2
Al      10.02323862       9.09373067      22.67653718  T        2
Al      12.88702109       9.09373067      22.67653718  T        2
Al       0.00000000       0.00000000      25.01480577  T        1
Al       2.86378246       0.00000000      25.01480577  T        1
Al       5.72756493       0.00000000      25.01480577  T        1
Al       8.59134739       0.00000000      25.01480577  T        1
Al       1.43189123       2.48010836      25.01480577  T        1
Al       4.29567370       2.48010836      25.01480577  T        1
Al       7.15945616       2.48010836      25.01480577  T        1
Al      10.02323862       2.48010836      25.01480577  T        1
Al       2.86378246       4.96021673      25.01480577  T        1
Al       5.72756493       4.96021673      25.01480577  T        1
Al       8.59134739       4.96021673      25.01480577  T        1
Al      11.45512986       4.96021673      25.01480577  T        1
Al       4.29567370       7.44032509      25.01480577  T        1
Al       7.15945616       7.44032509      25.01480577  T        1
Al      10.02323862       7.44032509      25.01480577  T        1
Al      12.88702109       7.44032509      25.01480577  T        1
O        5.25026785       4.13351394      27.41480577  T        0
H        5.25026785       3.37027494      28.01111477  T        0
H        5.25026785       4.89675294      28.01111477  T        0
67
Lattice="11.45512985522207 0.0 0.0 5.727564927611035 9.92043345827187 0.0 0.0 0.0 43.01480577065395" Properties=species:S:1:pos:R:3:move_mask:L:1:tags:I:1 surface_element=Al miller="_JSON [1, 1, 1]" slab_size="_JSON [4, 4, 4]" vacuum_angstrom=18.0 fixed_layers=2 fixed_atom_indices="_JSON [0, 1, 2, 3, 4, 5, 6, 7, 8, 9, 10, 11, 12, 13, 14, 15, 16, 17, 18, 19, 20, 21, 22, 23, 24, 25, 26, 27, 28, 29, 30, 31]" system_name=al111_h2o adsorbate=H2O site=fcc orientation=dipole_down height_angstrom=2.8 structure_id=024cdde63b5d5f39 pbc="T T T"
Al       0.00000000       0.00000000      18.00000000  F        4
Al       2.86378246       0.00000000      18.00000000  F        4
Al       5.72756493       0.00000000      18.00000000  F        4
Al       8.59134739       0.00000000      18.00000000  F        4
Al       1.43189123       2.48010836      18.00000000  F        4
Al       4.29567370       2.48010836      18.00000000  F        4
Al       7.15945616       2.48010836      18.00000000  F        4
Al      10.02323862       2.48010836      18.00000000  F        4
Al       2.86378246       4.96021673      18.00000000  F        4
Al       5.72756493       4.96021673      18.00000000  F        4
Al       8.59134739       4.96021673      18.00000000  F        4
Al      11.45512986       4.96021673      18.00000000  F        4
Al       4.29567370       7.44032509      18.00000000  F        4
Al       7.15945616       7.44032509      18.00000000  F        4
Al      10.02323862       7.44032509      18.00000000  F        4
Al      12.88702109       7.44032509      18.00000000  F        4
Al       1.43189123       0.82670279      20.33826859  F        3
Al       4.29567370       0.82670279      20.33826859  F        3
Al       7.15945616       0.82670279      20.33826859  F        3
Al      10.02323862       0.82670279      20.33826859  F        3
Al       2.86378246       3.30681115      20.33826859  F        3
Al       5.72756493       3.30681115      20.33826859  F        3
Al       8.59134739       3.30681115      20.33826859  F        3
Al      11.45512986       3.30681115      20.33826859  F        3
Al       4.29567370       5.78691952      20.33826859  F        3
Al       7.15945616       5.78691952      20.33826859  F        3
Al      10.02323862       5.78691952      20.33826859  F        3
Al      12.88702109       5.78691952      20.33826859  F        3
Al       5.72756493       8.26702788      20.33826859  F        3
Al       8.59134739       8.26702788      20.33826859  F        3
Al      11.45512986       8.26702788      20.33826859  F        3
Al      14.31891232       8.26702788      20.33826859  F        3
Al      -0.00000000       1.65340558      22.67653718  T        2
Al       2.86378246       1.65340558      22.67653718  T        2
Al       5.72756493       1.65340558      22.67653718  T        2
Al       8.59134739       1.65340558      22.67653718  T        2
Al       1.43189123       4.13351394      22.67653718  T        2
Al       4.29567370       4.13351394      22.67653718  T        2
Al       7.15945616       4.13351394      22.67653718  T        2
Al      10.02323862       4.13351394      22.67653718  T        2
Al       2.86378246       6.61362231      22.67653718  T        2
Al       5.72756493       6.61362231      22.67653718  T        2
Al       8.59134739       6.61362231      22.67653718  T        2
Al      11.45512986       6.61362231      22.67653718  T        2
Al       4.29567370       9.09373067      22.67653718  T        2
Al       7.15945616       9.09373067      22.67653718  T        2
Al      10.02323862       9.09373067      22.67653718  T        2
Al      12.88702109       9.09373067      22.67653718  T        2
Al       0.00000000       0.00000000      25.01480577  T        1
Al       2.86378246       0.00000000      25.01480577  T        1
Al       5.72756493       0.00000000      25.01480577  T        1
Al       8.59134739       0.00000000      25.01480577  T        1
Al       1.43189123       2.48010836      25.01480577  T        1
Al       4.29567370       2.48010836      25.01480577  T        1
Al       7.15945616       2.48010836      25.01480577  T        1
Al      10.02323862       2.48010836      25.01480577  T        1
Al       2.86378246       4.96021673      25.01480577  T        1
Al       5.72756493       4.96021673      25.01480577  T        1
Al       8.59134739       4.96021673      25.01480577  T        1
Al      11.45512986       4.96021673      25.01480577  T        1
Al       4.29567370       7.44032509      25.01480577  T        1
Al       7.15945616       7.44032509      25.01480577  T        1
Al      10.02323862       7.44032509      25.01480577  T        1
Al      12.88702109       7.44032509      25.01480577  T        1
O        5.25026785       4.13351394      27.81480577  T        0
H        5.25026785       3.37027494      28.41111477  T        0
H        5.25026785       4.89675294      28.41111477  T        0
67
Lattice="11.45512985522207 0.0 0.0 5.727564927611035 9.92043345827187 0.0 0.0 0.0 43.01480577065395" Properties=species:S:1:pos:R:3:move_mask:L:1:tags:I:1 surface_element=Al miller="_JSON [1, 1, 1]" slab_size="_JSON [4, 4, 4]" vacuum_angstrom=18.0 fixed_layers=2 fixed_atom_indices="_JSON [0, 1, 2, 3, 4, 5, 6, 7, 8, 9, 10, 11, 12, 13, 14, 15, 16, 17, 18, 19, 20, 21, 22, 23, 24, 25, 26, 27, 28, 29, 30, 31]" system_name=al111_h2o adsorbate=H2O site=fcc orientation=dipole_down height_angstrom=3.2 structure_id=e09c8e2b0e1ce168 pbc="T T T"
Al       0.00000000       0.00000000      18.00000000  F        4
Al       2.86378246       0.00000000      18.00000000  F        4
Al       5.72756493       0.00000000      18.00000000  F        4
Al       8.59134739       0.00000000      18.00000000  F        4
Al       1.43189123       2.48010836      18.00000000  F        4
Al       4.29567370       2.48010836      18.00000000  F        4
Al       7.15945616       2.48010836      18.00000000  F        4
Al      10.02323862       2.48010836      18.00000000  F        4
Al       2.86378246       4.96021673      18.00000000  F        4
Al       5.72756493       4.96021673      18.00000000  F        4
Al       8.59134739       4.96021673      18.00000000  F        4
Al      11.45512986       4.96021673      18.00000000  F        4
Al       4.29567370       7.44032509      18.00000000  F        4
Al       7.15945616       7.44032509      18.00000000  F        4
Al      10.02323862       7.44032509      18.00000000  F        4
Al      12.88702109       7.44032509      18.00000000  F        4
Al       1.43189123       0.82670279      20.33826859  F        3
Al       4.29567370       0.82670279      20.33826859  F        3
Al       7.15945616       0.82670279      20.33826859  F        3
Al      10.02323862       0.82670279      20.33826859  F        3
Al       2.86378246       3.30681115      20.33826859  F        3
Al       5.72756493       3.30681115      20.33826859  F        3
Al       8.59134739       3.30681115      20.33826859  F        3
Al      11.45512986       3.30681115      20.33826859  F        3
Al       4.29567370       5.78691952      20.33826859  F        3
Al       7.15945616       5.78691952      20.33826859  F        3
Al      10.02323862       5.78691952      20.33826859  F        3
Al      12.88702109       5.78691952      20.33826859  F        3
Al       5.72756493       8.26702788      20.33826859  F        3
Al       8.59134739       8.26702788      20.33826859  F        3
Al      11.45512986       8.26702788      20.33826859  F        3
Al      14.31891232       8.26702788      20.33826859  F        3
Al      -0.00000000       1.65340558      22.67653718  T        2
Al       2.86378246       1.65340558      22.67653718  T        2
Al       5.72756493       1.65340558      22.67653718  T        2
Al       8.59134739       1.65340558      22.67653718  T        2
Al       1.43189123       4.13351394      22.67653718  T        2
Al       4.29567370       4.13351394      22.67653718  T        2
Al       7.15945616       4.13351394      22.67653718  T        2
Al      10.02323862       4.13351394      22.67653718  T        2
Al       2.86378246       6.61362231      22.67653718  T        2
Al       5.72756493       6.61362231      22.67653718  T        2
Al       8.59134739       6.61362231      22.67653718  T        2
Al      11.45512986       6.61362231      22.67653718  T        2
Al       4.29567370       9.09373067      22.67653718  T        2
Al       7.15945616       9.09373067      22.67653718  T        2
Al      10.02323862       9.09373067      22.67653718  T        2
Al      12.88702109       9.09373067      22.67653718  T        2
Al       0.00000000       0.00000000      25.01480577  T        1
Al       2.86378246       0.00000000      25.01480577  T        1
Al       5.72756493       0.00000000      25.01480577  T        1
Al       8.59134739       0.00000000      25.01480577  T        1
Al       1.43189123       2.48010836      25.01480577  T        1
Al       4.29567370       2.48010836      25.01480577  T        1
Al       7.15945616       2.48010836      25.01480577  T        1
Al      10.02323862       2.48010836      25.01480577  T        1
Al       2.86378246       4.96021673      25.01480577  T        1
Al       5.72756493       4.96021673      25.01480577  T        1
Al       8.59134739       4.96021673      25.01480577  T        1
Al      11.45512986       4.96021673      25.01480577  T        1
Al       4.29567370       7.44032509      25.01480577  T        1
Al       7.15945616       7.44032509      25.01480577  T        1
Al      10.02323862       7.44032509      25.01480577  T        1
Al      12.88702109       7.44032509      25.01480577  T        1
O        5.25026785       4.13351394      28.21480577  T        0
H        5.25026785       3.37027494      28.81111477  T        0
H        5.25026785       4.89675294      28.81111477  T        0
67
Lattice="11.45512985522207 0.0 0.0 5.727564927611035 9.92043345827187 0.0 0.0 0.0 43.01480577065395" Properties=species:S:1:pos:R:3:move_mask:L:1:tags:I:1 surface_element=Al miller="_JSON [1, 1, 1]" slab_size="_JSON [4, 4, 4]" vacuum_angstrom=18.0 fixed_layers=2 fixed_atom_indices="_JSON [0, 1, 2, 3, 4, 5, 6, 7, 8, 9, 10, 11, 12, 13, 14, 15, 16, 17, 18, 19, 20, 21, 22, 23, 24, 25, 26, 27, 28, 29, 30, 31]" system_name=al111_h2o adsorbate=H2O site=fcc orientation=dipole_up height_angstrom=2.0 structure_id=0e41865ed9b92599 pbc="T T T"
Al       0.00000000       0.00000000      18.00000000  F        4
Al       2.86378246       0.00000000      18.00000000  F        4
Al       5.72756493       0.00000000      18.00000000  F        4
Al       8.59134739       0.00000000      18.00000000  F        4
Al       1.43189123       2.48010836      18.00000000  F        4
Al       4.29567370       2.48010836      18.00000000  F        4
Al       7.15945616       2.48010836      18.00000000  F        4
Al      10.02323862       2.48010836      18.00000000  F        4
Al       2.86378246       4.96021673      18.00000000  F        4
Al       5.72756493       4.96021673      18.00000000  F        4
Al       8.59134739       4.96021673      18.00000000  F        4
Al      11.45512986       4.96021673      18.00000000  F        4
Al       4.29567370       7.44032509      18.00000000  F        4
Al       7.15945616       7.44032509      18.00000000  F        4
Al      10.02323862       7.44032509      18.00000000  F        4
Al      12.88702109       7.44032509      18.00000000  F        4
Al       1.43189123       0.82670279      20.33826859  F        3
Al       4.29567370       0.82670279      20.33826859  F        3
Al       7.15945616       0.82670279      20.33826859  F        3
Al      10.02323862       0.82670279      20.33826859  F        3
Al       2.86378246       3.30681115      20.33826859  F        3
Al       5.72756493       3.30681115      20.33826859  F        3
Al       8.59134739       3.30681115      20.33826859  F        3
Al      11.45512986       3.30681115      20.33826859  F        3
Al       4.29567370       5.78691952      20.33826859  F        3
Al       7.15945616       5.78691952      20.33826859  F        3
Al      10.02323862       5.78691952      20.33826859  F        3
Al      12.88702109       5.78691952      20.33826859  F        3
Al       5.72756493       8.26702788      20.33826859  F        3
Al       8.59134739       8.26702788      20.33826859  F        3
Al      11.45512986       8.26702788      20.33826859  F        3
Al      14.31891232       8.26702788      20.33826859  F        3
Al      -0.00000000       1.65340558      22.67653718  T        2
Al       2.86378246       1.65340558      22.67653718  T        2
Al       5.72756493       1.65340558      22.67653718  T        2
Al       8.59134739       1.65340558      22.67653718  T        2
Al       1.43189123       4.13351394      22.67653718  T        2
Al       4.29567370       4.13351394      22.67653718  T        2
Al       7.15945616       4.13351394      22.67653718  T        2
Al      10.02323862       4.13351394      22.67653718  T        2
Al       2.86378246       6.61362231      22.67653718  T        2
Al       5.72756493       6.61362231      22.67653718  T        2
Al       8.59134739       6.61362231      22.67653718  T        2
Al      11.45512986       6.61362231      22.67653718  T        2
Al       4.29567370       9.09373067      22.67653718  T        2
Al       7.15945616       9.09373067      22.67653718  T        2
Al      10.02323862       9.09373067      22.67653718  T        2
Al      12.88702109       9.09373067      22.67653718  T        2
Al       0.00000000       0.00000000      25.01480577  T        1
Al       2.86378246       0.00000000      25.01480577  T        1
Al       5.72756493       0.00000000      25.01480577  T        1
Al       8.59134739       0.00000000      25.01480577  T        1
Al       1.43189123       2.48010836      25.01480577  T        1
Al       4.29567370       2.48010836      25.01480577  T        1
Al       7.15945616       2.48010836      25.01480577  T        1
Al      10.02323862       2.48010836      25.01480577  T        1
Al       2.86378246       4.96021673      25.01480577  T        1
Al       5.72756493       4.96021673      25.01480577  T        1
Al       8.59134739       4.96021673      25.01480577  T        1
Al      11.45512986       4.96021673      25.01480577  T        1
Al       4.29567370       7.44032509      25.01480577  T        1
Al       7.15945616       7.44032509      25.01480577  T        1
Al      10.02323862       7.44032509      25.01480577  T        1
Al      12.88702109       7.44032509      25.01480577  T        1
O        5.25026785       4.13351394      27.01480577  T        0
H        5.25026785       4.89675294      26.41849677  T        0
H        5.25026785       3.37027494      26.41849677  T        0
67
Lattice="11.45512985522207 0.0 0.0 5.727564927611035 9.92043345827187 0.0 0.0 0.0 43.01480577065395" Properties=species:S:1:pos:R:3:move_mask:L:1:tags:I:1 surface_element=Al miller="_JSON [1, 1, 1]" slab_size="_JSON [4, 4, 4]" vacuum_angstrom=18.0 fixed_layers=2 fixed_atom_indices="_JSON [0, 1, 2, 3, 4, 5, 6, 7, 8, 9, 10, 11, 12, 13, 14, 15, 16, 17, 18, 19, 20, 21, 22, 23, 24, 25, 26, 27, 28, 29, 30, 31]" system_name=al111_h2o adsorbate=H2O site=fcc orientation=dipole_up height_angstrom=2.4 structure_id=1d3cedc65281e0c8 pbc="T T T"
Al       0.00000000       0.00000000      18.00000000  F        4
Al       2.86378246       0.00000000      18.00000000  F        4
Al       5.72756493       0.00000000      18.00000000  F        4
Al       8.59134739       0.00000000      18.00000000  F        4
Al       1.43189123       2.48010836      18.00000000  F        4
Al       4.29567370       2.48010836      18.00000000  F        4
Al       7.15945616       2.48010836      18.00000000  F        4
Al      10.02323862       2.48010836      18.00000000  F        4
Al       2.86378246       4.96021673      18.00000000  F        4
Al       5.72756493       4.96021673      18.00000000  F        4
Al       8.59134739       4.96021673      18.00000000  F        4
Al      11.45512986       4.96021673      18.00000000  F        4
Al       4.29567370       7.44032509      18.00000000  F        4
Al       7.15945616       7.44032509      18.00000000  F        4
Al      10.02323862       7.44032509      18.00000000  F        4
Al      12.88702109       7.44032509      18.00000000  F        4
Al       1.43189123       0.82670279      20.33826859  F        3
Al       4.29567370       0.82670279      20.33826859  F        3
Al       7.15945616       0.82670279      20.33826859  F        3
Al      10.02323862       0.82670279      20.33826859  F        3
Al       2.86378246       3.30681115      20.33826859  F        3
Al       5.72756493       3.30681115      20.33826859  F        3
Al       8.59134739       3.30681115      20.33826859  F        3
Al      11.45512986       3.30681115      20.33826859  F        3
Al       4.29567370       5.78691952      20.33826859  F        3
Al       7.15945616       5.78691952      20.33826859  F        3
Al      10.02323862       5.78691952      20.33826859  F        3
Al      12.88702109       5.78691952      20.33826859  F        3
Al       5.72756493       8.26702788      20.33826859  F        3
Al       8.59134739       8.26702788      20.33826859  F        3
Al      11.45512986       8.26702788      20.33826859  F        3
Al      14.31891232       8.26702788      20.33826859  F        3
Al      -0.00000000       1.65340558      22.67653718  T        2
Al       2.86378246       1.65340558      22.67653718  T        2
Al       5.72756493       1.65340558      22.67653718  T        2
Al       8.59134739       1.65340558      22.67653718  T        2
Al       1.43189123       4.13351394      22.67653718  T        2
Al       4.29567370       4.13351394      22.67653718  T        2
Al       7.15945616       4.13351394      22.67653718  T        2
Al      10.02323862       4.13351394      22.67653718  T        2
Al       2.86378246       6.61362231      22.67653718  T        2
Al       5.72756493       6.61362231      22.67653718  T        2
Al       8.59134739       6.61362231      22.67653718  T        2
Al      11.45512986       6.61362231      22.67653718  T        2
Al       4.29567370       9.09373067      22.67653718  T        2
Al       7.15945616       9.09373067      22.67653718  T        2
Al      10.02323862       9.09373067      22.67653718  T        2
Al      12.88702109       9.09373067      22.67653718  T        2
Al       0.00000000       0.00000000      25.01480577  T        1
Al       2.86378246       0.00000000      25.01480577  T        1
Al       5.72756493       0.00000000      25.01480577  T        1
Al       8.59134739       0.00000000      25.01480577  T        1
Al       1.43189123       2.48010836      25.01480577  T        1
Al       4.29567370       2.48010836      25.01480577  T        1
Al       7.15945616       2.48010836      25.01480577  T        1
Al      10.02323862       2.48010836      25.01480577  T        1
Al       2.86378246       4.96021673      25.01480577  T        1
Al       5.72756493       4.96021673      25.01480577  T        1
Al       8.59134739       4.96021673      25.01480577  T        1
Al      11.45512986       4.96021673      25.01480577  T        1
Al       4.29567370       7.44032509      25.01480577  T        1
Al       7.15945616       7.44032509      25.01480577  T        1
Al      10.02323862       7.44032509      25.01480577  T        1
Al      12.88702109       7.44032509      25.01480577  T        1
O        5.25026785       4.13351394      27.41480577  T        0
H        5.25026785       4.89675294      26.81849677  T        0
H        5.25026785       3.37027494      26.81849677  T        0
67
Lattice="11.45512985522207 0.0 0.0 5.727564927611035 9.92043345827187 0.0 0.0 0.0 43.01480577065395" Properties=species:S:1:pos:R:3:move_mask:L:1:tags:I:1 surface_element=Al miller="_JSON [1, 1, 1]" slab_size="_JSON [4, 4, 4]" vacuum_angstrom=18.0 fixed_layers=2 fixed_atom_indices="_JSON [0, 1, 2, 3, 4, 5, 6, 7, 8, 9, 10, 11, 12, 13, 14, 15, 16, 17, 18, 19, 20, 21, 22, 23, 24, 25, 26, 27, 28, 29, 30, 31]" system_name=al111_h2o adsorbate=H2O site=fcc orientation=dipole_up height_angstrom=2.8 structure_id=24c3aefb49c2937f pbc="T T T"
Al       0.00000000       0.00000000      18.00000000  F        4
Al       2.86378246       0.00000000      18.00000000  F        4
Al       5.72756493       0.00000000      18.00000000  F        4
Al       8.59134739       0.00000000      18.00000000  F        4
Al       1.43189123       2.48010836      18.00000000  F        4
Al       4.29567370       2.48010836      18.00000000  F        4
Al       7.15945616       2.48010836      18.00000000  F        4
Al      10.02323862       2.48010836      18.00000000  F        4
Al       2.86378246       4.96021673      18.00000000  F        4
Al       5.72756493       4.96021673      18.00000000  F        4
Al       8.59134739       4.96021673      18.00000000  F        4
Al      11.45512986       4.96021673      18.00000000  F        4
Al       4.29567370       7.44032509      18.00000000  F        4
Al       7.15945616       7.44032509      18.00000000  F        4
Al      10.02323862       7.44032509      18.00000000  F        4
Al      12.88702109       7.44032509      18.00000000  F        4
Al       1.43189123       0.82670279      20.33826859  F        3
Al       4.29567370       0.82670279      20.33826859  F        3
Al       7.15945616       0.82670279      20.33826859  F        3
Al      10.02323862       0.82670279      20.33826859  F        3
Al       2.86378246       3.30681115      20.33826859  F        3
Al       5.72756493       3.30681115      20.33826859  F        3
Al       8.59134739       3.30681115      20.33826859  F        3
Al      11.45512986       3.30681115      20.33826859  F        3
Al       4.29567370       5.78691952      20.33826859  F        3
Al       7.15945616       5.78691952      20.33826859  F        3
Al      10.02323862       5.78691952      20.33826859  F        3
Al      12.88702109       5.78691952      20.33826859  F        3
Al       5.72756493       8.26702788      20.33826859  F        3
Al       8.59134739       8.26702788      20.33826859  F        3
Al      11.45512986       8.26702788      20.33826859  F        3
Al      14.31891232       8.26702788      20.33826859  F        3
Al      -0.00000000       1.65340558      22.67653718  T        2
Al       2.86378246       1.65340558      22.67653718  T        2
Al       5.72756493       1.65340558      22.67653718  T        2
Al       8.59134739       1.65340558      22.67653718  T        2
Al       1.43189123       4.13351394      22.67653718  T        2
Al       4.29567370       4.13351394      22.67653718  T        2
Al       7.15945616       4.13351394      22.67653718  T        2
Al      10.02323862       4.13351394      22.67653718  T        2
Al       2.86378246       6.61362231      22.67653718  T        2
Al       5.72756493       6.61362231      22.67653718  T        2
Al       8.59134739       6.61362231      22.67653718  T        2
Al      11.45512986       6.61362231      22.67653718  T        2
Al       4.29567370       9.09373067      22.67653718  T        2
Al       7.15945616       9.09373067      22.67653718  T        2
Al      10.02323862       9.09373067      22.67653718  T        2
Al      12.88702109       9.09373067      22.67653718  T        2
Al       0.00000000       0.00000000      25.01480577  T        1
Al       2.86378246       0.00000000      25.01480577  T        1
Al       5.72756493       0.00000000      25.01480577  T        1
Al       8.59134739       0.00000000      25.01480577  T        1
Al       1.43189123       2.48010836      25.01480577  T        1
Al       4.29567370       2.48010836      25.01480577  T        1
Al       7.15945616       2.48010836      25.01480577  T        1
Al      10.02323862       2.48010836      25.01480577  T        1
Al       2.86378246       4.96021673      25.01480577  T        1
Al       5.72756493       4.96021673      25.01480577  T        1
Al       8.59134739       4.96021673      25.01480577  T        1
Al      11.45512986       4.96021673      25.01480577  T        1
Al       4.29567370       7.44032509      25.01480577  T        1
Al       7.15945616       7.44032509      25.01480577  T        1
Al      10.02323862       7.44032509      25.01480577  T        1
Al      12.88702109       7.44032509      25.01480577  T        1
O        5.25026785       4.13351394      27.81480577  T        0
H        5.25026785       4.89675294      27.21849677  T        0
H        5.25026785       3.37027494      27.21849677  T        0
67
Lattice="11.45512985522207 0.0 0.0 5.727564927611035 9.92043345827187 0.0 0.0 0.0 43.01480577065395" Properties=species:S:1:pos:R:3:move_mask:L:1:tags:I:1 surface_element=Al miller="_JSON [1, 1, 1]" slab_size="_JSON [4, 4, 4]" vacuum_angstrom=18.0 fixed_layers=2 fixed_atom_indices="_JSON [0, 1, 2, 3, 4, 5, 6, 7, 8, 9, 10, 11, 12, 13, 14, 15, 16, 17, 18, 19, 20, 21, 22, 23, 24, 25, 26, 27, 28, 29, 30, 31]" system_name=al111_h2o adsorbate=H2O site=fcc orientation=dipole_up height_angstrom=3.2 structure_id=a342c94e9b4a7b77 pbc="T T T"
Al       0.00000000       0.00000000      18.00000000  F        4
Al       2.86378246       0.00000000      18.00000000  F        4
Al       5.72756493       0.00000000      18.00000000  F        4
Al       8.59134739       0.00000000      18.00000000  F        4
Al       1.43189123       2.48010836      18.00000000  F        4
Al       4.29567370       2.48010836      18.00000000  F        4
Al       7.15945616       2.48010836      18.00000000  F        4
Al      10.02323862       2.48010836      18.00000000  F        4
Al       2.86378246       4.96021673      18.00000000  F        4
Al       5.72756493       4.96021673      18.00000000  F        4
Al       8.59134739       4.96021673      18.00000000  F        4
Al      11.45512986       4.96021673      18.00000000  F        4
Al       4.29567370       7.44032509      18.00000000  F        4
Al       7.15945616       7.44032509      18.00000000  F        4
Al      10.02323862       7.44032509      18.00000000  F        4
Al      12.88702109       7.44032509      18.00000000  F        4
Al       1.43189123       0.82670279      20.33826859  F        3
Al       4.29567370       0.82670279      20.33826859  F        3
Al       7.15945616       0.82670279      20.33826859  F        3
Al      10.02323862       0.82670279      20.33826859  F        3
Al       2.86378246       3.30681115      20.33826859  F        3
Al       5.72756493       3.30681115      20.33826859  F        3
Al       8.59134739       3.30681115      20.33826859  F        3
Al      11.45512986       3.30681115      20.33826859  F        3
Al       4.29567370       5.78691952      20.33826859  F        3
Al       7.15945616       5.78691952      20.33826859  F        3
Al      10.02323862       5.78691952      20.33826859  F        3
Al      12.88702109       5.78691952      20.33826859  F        3
Al       5.72756493       8.26702788      20.33826859  F        3
Al       8.59134739       8.26702788      20.33826859  F        3
Al      11.45512986       8.26702788      20.33826859  F        3
Al      14.31891232       8.26702788      20.33826859  F        3
Al      -0.00000000       1.65340558      22.67653718  T        2
Al       2.86378246       1.65340558      22.67653718  T        2
Al       5.72756493       1.65340558      22.67653718  T        2
Al       8.59134739       1.65340558      22.67653718  T        2
Al       1.43189123       4.13351394      22.67653718  T        2
Al       4.29567370       4.13351394      22.67653718  T        2
Al       7.15945616       4.13351394      22.67653718  T        2
Al      10.02323862       4.13351394      22.67653718  T        2
Al       2.86378246       6.61362231      22.67653718  T        2
Al       5.72756493       6.61362231      22.67653718  T        2
Al       8.59134739       6.61362231      22.67653718  T        2
Al      11.45512986       6.61362231      22.67653718  T        2
Al       4.29567370       9.09373067      22.67653718  T        2
Al       7.15945616       9.09373067      22.67653718  T        2
Al      10.02323862       9.09373067      22.67653718  T        2
Al      12.88702109       9.09373067      22.67653718  T        2
Al       0.00000000       0.00000000      25.01480577  T        1
Al       2.86378246       0.00000000      25.01480577  T        1
Al       5.72756493       0.00000000      25.01480577  T        1
Al       8.59134739       0.00000000      25.01480577  T        1
Al       1.43189123       2.48010836      25.01480577  T        1
Al       4.29567370       2.48010836      25.01480577  T        1
Al       7.15945616       2.48010836      25.01480577  T        1
Al      10.02323862       2.48010836      25.01480577  T        1
Al       2.86378246       4.96021673      25.01480577  T        1
Al       5.72756493       4.96021673      25.01480577  T        1
Al       8.59134739       4.96021673      25.01480577  T        1
Al      11.45512986       4.96021673      25.01480577  T        1
Al       4.29567370       7.44032509      25.01480577  T        1
Al       7.15945616       7.44032509      25.01480577  T        1
Al      10.02323862       7.44032509      25.01480577  T        1
Al      12.88702109       7.44032509      25.01480577  T        1
O        5.25026785       4.13351394      28.21480577  T        0
H        5.25026785       4.89675294      27.61849677  T        0
H        5.25026785       3.37027494      27.61849677  T        0
67
Lattice="11.45512985522207 0.0 0.0 5.727564927611035 9.92043345827187 0.0 0.0 0.0 43.01480577065395" Properties=species:S:1:pos:R:3:move_mask:L:1:tags:I:1 surface_element=Al miller="_JSON [1, 1, 1]" slab_size="_JSON [4, 4, 4]" vacuum_angstrom=18.0 fixed_layers=2 fixed_atom_indices="_JSON [0, 1, 2, 3, 4, 5, 6, 7, 8, 9, 10, 11, 12, 13, 14, 15, 16, 17, 18, 19, 20, 21, 22, 23, 24, 25, 26, 27, 28, 29, 30, 31]" system_name=al111_h2o adsorbate=H2O site=hcp orientation=flat height_angstrom=2.0 structure_id=6d88854b3f98a4b2 pbc="T T T"
Al       0.00000000       0.00000000      18.00000000  F        4
Al       2.86378246       0.00000000      18.00000000  F        4
Al       5.72756493       0.00000000      18.00000000  F        4
Al       8.59134739       0.00000000      18.00000000  F        4
Al       1.43189123       2.48010836      18.00000000  F        4
Al       4.29567370       2.48010836      18.00000000  F        4
Al       7.15945616       2.48010836      18.00000000  F        4
Al      10.02323862       2.48010836      18.00000000  F        4
Al       2.86378246       4.96021673      18.00000000  F        4
Al       5.72756493       4.96021673      18.00000000  F        4
Al       8.59134739       4.96021673      18.00000000  F        4
Al      11.45512986       4.96021673      18.00000000  F        4
Al       4.29567370       7.44032509      18.00000000  F        4
Al       7.15945616       7.44032509      18.00000000  F        4
Al      10.02323862       7.44032509      18.00000000  F        4
Al      12.88702109       7.44032509      18.00000000  F        4
Al       1.43189123       0.82670279      20.33826859  F        3
Al       4.29567370       0.82670279      20.33826859  F        3
Al       7.15945616       0.82670279      20.33826859  F        3
Al      10.02323862       0.82670279      20.33826859  F        3
Al       2.86378246       3.30681115      20.33826859  F        3
Al       5.72756493       3.30681115      20.33826859  F        3
Al       8.59134739       3.30681115      20.33826859  F        3
Al      11.45512986       3.30681115      20.33826859  F        3
Al       4.29567370       5.78691952      20.33826859  F        3
Al       7.15945616       5.78691952      20.33826859  F        3
Al      10.02323862       5.78691952      20.33826859  F        3
Al      12.88702109       5.78691952      20.33826859  F        3
Al       5.72756493       8.26702788      20.33826859  F        3
Al       8.59134739       8.26702788      20.33826859  F        3
Al      11.45512986       8.26702788      20.33826859  F        3
Al      14.31891232       8.26702788      20.33826859  F        3
Al      -0.00000000       1.65340558      22.67653718  T        2
Al       2.86378246       1.65340558      22.67653718  T        2
Al       5.72756493       1.65340558      22.67653718  T        2
Al       8.59134739       1.65340558      22.67653718  T        2
Al       1.43189123       4.13351394      22.67653718  T        2
Al       4.29567370       4.13351394      22.67653718  T        2
Al       7.15945616       4.13351394      22.67653718  T        2
Al      10.02323862       4.13351394      22.67653718  T        2
Al       2.86378246       6.61362231      22.67653718  T        2
Al       5.72756493       6.61362231      22.67653718  T        2
Al       8.59134739       6.61362231      22.67653718  T        2
Al      11.45512986       6.61362231      22.67653718  T        2
Al       4.29567370       9.09373067      22.67653718  T        2
Al       7.15945616       9.09373067      22.67653718  T        2
Al      10.02323862       9.09373067      22.67653718  T        2
Al      12.88702109       9.09373067      22.67653718  T        2
Al       0.00000000       0.00000000      25.01480577  T        1
Al       2.86378246       0.00000000      25.01480577  T        1
Al       5.72756493       0.00000000      25.01480577  T        1
Al       8.59134739       0.00000000      25.01480577  T        1
Al       1.43189123       2.48010836      25.01480577  T        1
Al       4.29567370       2.48010836      25.01480577  T        1
Al       7.15945616       2.48010836      25.01480577  T        1
Al      10.02323862       2.48010836      25.01480577  T        1
Al       2.86378246       4.96021673      25.01480577  T        1
Al       5.72756493       4.96021673      25.01480577  T        1
Al       8.59134739       4.96021673      25.01480577  T        1
Al      11.45512986       4.96021673      25.01480577  T        1
Al       4.29567370       7.44032509      25.01480577  T        1
Al       7.15945616       7.44032509      25.01480577  T        1
Al      10.02323862       7.44032509      25.01480577  T        1
Al      12.88702109       7.44032509      25.01480577  T        1
O        7.63675324       3.30681115      27.01480577  T        0
H        7.04044424       4.07005015      27.01480577  T        0
H        7.04044424       2.54357215      27.01480577  T        0
67
Lattice="11.45512985522207 0.0 0.0 5.727564927611035 9.92043345827187 0.0 0.0 0.0 43.01480577065395" Properties=species:S:1:pos:R:3:move_mask:L:1:tags:I:1 surface_element=Al miller="_JSON [1, 1, 1]" slab_size="_JSON [4, 4, 4]" vacuum_angstrom=18.0 fixed_layers=2 fixed_atom_indices="_JSON [0, 1, 2, 3, 4, 5, 6, 7, 8, 9, 10, 11, 12, 13, 14, 15, 16, 17, 18, 19, 20, 21, 22, 23, 24, 25, 26, 27, 28, 29, 30, 31]" system_name=al111_h2o adsorbate=H2O site=hcp orientation=flat height_angstrom=2.4 structure_id=ba36ad45157e307f pbc="T T T"
Al       0.00000000       0.00000000      18.00000000  F        4
Al       2.86378246       0.00000000      18.00000000  F        4
Al       5.72756493       0.00000000      18.00000000  F        4
Al       8.59134739       0.00000000      18.00000000  F        4
Al       1.43189123       2.48010836      18.00000000  F        4
Al       4.29567370       2.48010836      18.00000000  F        4
Al       7.15945616       2.48010836      18.00000000  F        4
Al      10.02323862       2.48010836      18.00000000  F        4
Al       2.86378246       4.96021673      18.00000000  F        4
Al       5.72756493       4.96021673      18.00000000  F        4
Al       8.59134739       4.96021673      18.00000000  F        4
Al      11.45512986       4.96021673      18.00000000  F        4
Al       4.29567370       7.44032509      18.00000000  F        4
Al       7.15945616       7.44032509      18.00000000  F        4
Al      10.02323862       7.44032509      18.00000000  F        4
Al      12.88702109       7.44032509      18.00000000  F        4
Al       1.43189123       0.82670279      20.33826859  F        3
Al       4.29567370       0.82670279      20.33826859  F        3
Al       7.15945616       0.82670279      20.33826859  F        3
Al      10.02323862       0.82670279      20.33826859  F        3
Al       2.86378246       3.30681115      20.33826859  F        3
Al       5.72756493       3.30681115      20.33826859  F        3
Al       8.59134739       3.30681115      20.33826859  F        3
Al      11.45512986       3.30681115      20.33826859  F        3
Al       4.29567370       5.78691952      20.33826859  F        3
Al       7.15945616       5.78691952      20.33826859  F        3
Al      10.02323862       5.78691952      20.33826859  F        3
Al      12.88702109       5.78691952      20.33826859  F        3
Al       5.72756493       8.26702788      20.33826859  F        3
Al       8.59134739       8.26702788      20.33826859  F        3
Al      11.45512986       8.26702788      20.33826859  F        3
Al      14.31891232       8.26702788      20.33826859  F        3
Al      -0.00000000       1.65340558      22.67653718  T        2
Al       2.86378246       1.65340558      22.67653718  T        2
Al       5.72756493       1.65340558      22.67653718  T        2
Al       8.59134739       1.65340558      22.67653718  T        2
Al       1.43189123       4.13351394      22.67653718  T        2
Al       4.29567370       4.13351394      22.67653718  T        2
Al       7.15945616       4.13351394      22.67653718  T        2
Al      10.02323862       4.13351394      22.67653718  T        2
Al       2.86378246       6.61362231      22.67653718  T        2
Al       5.72756493       6.61362231      22.67653718  T        2
Al       8.59134739       6.61362231      22.67653718  T        2
Al      11.45512986       6.61362231      22.67653718  T        2
Al       4.29567370       9.09373067      22.67653718  T        2
Al       7.15945616       9.09373067      22.67653718  T        2
Al      10.02323862       9.09373067      22.67653718  T        2
Al      12.88702109       9.09373067      22.67653718  T        2
Al       0.00000000       0.00000000      25.01480577  T        1
Al       2.86378246       0.00000000      25.01480577  T        1
Al       5.72756493       0.00000000      25.01480577  T        1
Al       8.59134739       0.00000000      25.01480577  T        1
Al       1.43189123       2.48010836      25.01480577  T        1
Al       4.29567370       2.48010836      25.01480577  T        1
Al       7.15945616       2.48010836      25.01480577  T        1
Al      10.02323862       2.48010836      25.01480577  T        1
Al       2.86378246       4.96021673      25.01480577  T        1
Al       5.72756493       4.96021673      25.01480577  T        1
Al       8.59134739       4.96021673      25.01480577  T        1
Al      11.45512986       4.96021673      25.01480577  T        1
Al       4.29567370       7.44032509      25.01480577  T        1
Al       7.15945616       7.44032509      25.01480577  T        1
Al      10.02323862       7.44032509      25.01480577  T        1
Al      12.88702109       7.44032509      25.01480577  T        1
O        7.63675324       3.30681115      27.41480577  T        0
H        7.04044424       4.07005015      27.41480577  T        0
H        7.04044424       2.54357215      27.41480577  T        0
67
Lattice="11.45512985522207 0.0 0.0 5.727564927611035 9.92043345827187 0.0 0.0 0.0 43.01480577065395" Properties=species:S:1:pos:R:3:move_mask:L:1:tags:I:1 surface_element=Al miller="_JSON [1, 1, 1]" slab_size="_JSON [4, 4, 4]" vacuum_angstrom=18.0 fixed_layers=2 fixed_atom_indices="_JSON [0, 1, 2, 3, 4, 5, 6, 7, 8, 9, 10, 11, 12, 13, 14, 15, 16, 17, 18, 19, 20, 21, 22, 23, 24, 25, 26, 27, 28, 29, 30, 31]" system_name=al111_h2o adsorbate=H2O site=hcp orientation=flat height_angstrom=2.8 structure_id=b79b549de7429b76 pbc="T T T"
Al       0.00000000       0.00000000      18.00000000  F        4
Al       2.86378246       0.00000000      18.00000000  F        4
Al       5.72756493       0.00000000      18.00000000  F        4
Al       8.59134739       0.00000000      18.00000000  F        4
Al       1.43189123       2.48010836      18.00000000  F        4
Al       4.29567370       2.48010836      18.00000000  F        4
Al       7.15945616       2.48010836      18.00000000  F        4
Al      10.02323862       2.48010836      18.00000000  F        4
Al       2.86378246       4.96021673      18.00000000  F        4
Al       5.72756493       4.96021673      18.00000000  F        4
Al       8.59134739       4.96021673      18.00000000  F        4
Al      11.45512986       4.96021673      18.00000000  F        4
Al       4.29567370       7.44032509      18.00000000  F        4
Al       7.15945616       7.44032509      18.00000000  F        4
Al      10.02323862       7.44032509      18.00000000  F        4
Al      12.88702109       7.44032509      18.00000000  F        4
Al       1.43189123       0.82670279      20.33826859  F        3
Al       4.29567370       0.82670279      20.33826859  F        3
Al       7.15945616       0.82670279      20.33826859  F        3
Al      10.02323862       0.82670279      20.33826859  F        3
Al       2.86378246       3.30681115      20.33826859  F        3
Al       5.72756493       3.30681115      20.33826859  F        3
Al       8.59134739       3.30681115      20.33826859  F        3
Al      11.45512986       3.30681115      20.33826859  F        3
Al       4.29567370       5.78691952      20.33826859  F        3
Al       7.15945616       5.78691952      20.33826859  F        3
Al      10.02323862       5.78691952      20.33826859  F        3
Al      12.88702109       5.78691952      20.33826859  F        3
Al       5.72756493       8.26702788      20.33826859  F        3
Al       8.59134739       8.26702788      20.33826859  F        3
Al      11.45512986       8.26702788      20.33826859  F        3
Al      14.31891232       8.26702788      20.33826859  F        3
Al      -0.00000000       1.65340558      22.67653718  T        2
Al       2.86378246       1.65340558      22.67653718  T        2
Al       5.72756493       1.65340558      22.67653718  T        2
Al       8.59134739       1.65340558      22.67653718  T        2
Al       1.43189123       4.13351394      22.67653718  T        2
Al       4.29567370       4.13351394      22.67653718  T        2
Al       7.15945616       4.13351394      22.67653718  T        2
Al      10.02323862       4.13351394      22.67653718  T        2
Al       2.86378246       6.61362231      22.67653718  T        2
Al       5.72756493       6.61362231      22.67653718  T        2
Al       8.59134739       6.61362231      22.67653718  T        2
Al      11.45512986       6.61362231      22.67653718  T        2
Al       4.29567370       9.09373067      22.67653718  T        2
Al       7.15945616       9.09373067      22.67653718  T        2
Al      10.02323862       9.09373067      22.67653718  T        2
Al      12.88702109       9.09373067      22.67653718  T        2
Al       0.00000000       0.00000000      25.01480577  T        1
Al       2.86378246       0.00000000      25.01480577  T        1
Al       5.72756493       0.00000000      25.01480577  T        1
Al       8.59134739       0.00000000      25.01480577  T        1
Al       1.43189123       2.48010836      25.01480577  T        1
Al       4.29567370       2.48010836      25.01480577  T        1
Al       7.15945616       2.48010836      25.01480577  T        1
Al      10.02323862       2.48010836      25.01480577  T        1
Al       2.86378246       4.96021673      25.01480577  T        1
Al       5.72756493       4.96021673      25.01480577  T        1
Al       8.59134739       4.96021673      25.01480577  T        1
Al      11.45512986       4.96021673      25.01480577  T        1
Al       4.29567370       7.44032509      25.01480577  T        1
Al       7.15945616       7.44032509      25.01480577  T        1
Al      10.02323862       7.44032509      25.01480577  T        1
Al      12.88702109       7.44032509      25.01480577  T        1
O        7.63675324       3.30681115      27.81480577  T        0
H        7.04044424       4.07005015      27.81480577  T        0
H        7.04044424       2.54357215      27.81480577  T        0
67
Lattice="11.45512985522207 0.0 0.0 5.727564927611035 9.92043345827187 0.0 0.0 0.0 43.01480577065395" Properties=species:S:1:pos:R:3:move_mask:L:1:tags:I:1 surface_element=Al miller="_JSON [1, 1, 1]" slab_size="_JSON [4, 4, 4]" vacuum_angstrom=18.0 fixed_layers=2 fixed_atom_indices="_JSON [0, 1, 2, 3, 4, 5, 6, 7, 8, 9, 10, 11, 12, 13, 14, 15, 16, 17, 18, 19, 20, 21, 22, 23, 24, 25, 26, 27, 28, 29, 30, 31]" system_name=al111_h2o adsorbate=H2O site=hcp orientation=flat height_angstrom=3.2 structure_id=9e428be9ad8f5f57 pbc="T T T"
Al       0.00000000       0.00000000      18.00000000  F        4
Al       2.86378246       0.00000000      18.00000000  F        4
Al       5.72756493       0.00000000      18.00000000  F        4
Al       8.59134739       0.00000000      18.00000000  F        4
Al       1.43189123       2.48010836      18.00000000  F        4
Al       4.29567370       2.48010836      18.00000000  F        4
Al       7.15945616       2.48010836      18.00000000  F        4
Al      10.02323862       2.48010836      18.00000000  F        4
Al       2.86378246       4.96021673      18.00000000  F        4
Al       5.72756493       4.96021673      18.00000000  F        4
Al       8.59134739       4.96021673      18.00000000  F        4
Al      11.45512986       4.96021673      18.00000000  F        4
Al       4.29567370       7.44032509      18.00000000  F        4
Al       7.15945616       7.44032509      18.00000000  F        4
Al      10.02323862       7.44032509      18.00000000  F        4
Al      12.88702109       7.44032509      18.00000000  F        4
Al       1.43189123       0.82670279      20.33826859  F        3
Al       4.29567370       0.82670279      20.33826859  F        3
Al       7.15945616       0.82670279      20.33826859  F        3
Al      10.02323862       0.82670279      20.33826859  F        3
Al       2.86378246       3.30681115      20.33826859  F        3
Al       5.72756493       3.30681115      20.33826859  F        3
Al       8.59134739       3.30681115      20.33826859  F        3
Al      11.45512986       3.30681115      20.33826859  F        3
Al       4.29567370       5.78691952      20.33826859  F        3
Al       7.15945616       5.78691952      20.33826859  F        3
Al      10.02323862       5.78691952      20.33826859  F        3
Al      12.88702109       5.78691952      20.33826859  F        3
Al       5.72756493       8.26702788      20.33826859  F        3
Al       8.59134739       8.26702788      20.33826859  F        3
Al      11.45512986       8.26702788      20.33826859  F        3
Al      14.31891232       8.26702788      20.33826859  F        3
Al      -0.00000000       1.65340558      22.67653718  T        2
Al       2.86378246       1.65340558      22.67653718  T        2
Al       5.72756493       1.65340558      22.67653718  T        2
Al       8.59134739       1.65340558      22.67653718  T        2
Al       1.43189123       4.13351394      22.67653718  T        2
Al       4.29567370       4.13351394      22.67653718  T        2
Al       7.15945616       4.13351394      22.67653718  T        2
Al      10.02323862       4.13351394      22.67653718  T        2
Al       2.86378246       6.61362231      22.67653718  T        2
Al       5.72756493       6.61362231      22.67653718  T        2
Al       8.59134739       6.61362231      22.67653718  T        2
Al      11.45512986       6.61362231      22.67653718  T        2
Al       4.29567370       9.09373067      22.67653718  T        2
Al       7.15945616       9.09373067      22.67653718  T        2
Al      10.02323862       9.09373067      22.67653718  T        2
Al      12.88702109       9.09373067      22.67653718  T        2
Al       0.00000000       0.00000000      25.01480577  T        1
Al       2.86378246       0.00000000      25.01480577  T        1
Al       5.72756493       0.00000000      25.01480577  T        1
Al       8.59134739       0.00000000      25.01480577  T        1
Al       1.43189123       2.48010836      25.01480577  T        1
Al       4.29567370       2.48010836      25.01480577  T        1
Al       7.15945616       2.48010836      25.01480577  T        1
Al      10.02323862       2.48010836      25.01480577  T        1
Al       2.86378246       4.96021673      25.01480577  T        1
Al       5.72756493       4.96021673      25.01480577  T        1
Al       8.59134739       4.96021673      25.01480577  T        1
Al      11.45512986       4.96021673      25.01480577  T        1
Al       4.29567370       7.44032509      25.01480577  T        1
Al       7.15945616       7.44032509      25.01480577  T        1
Al      10.02323862       7.44032509      25.01480577  T        1
Al      12.88702109       7.44032509      25.01480577  T        1
O        7.63675324       3.30681115      28.21480577  T        0
H        7.04044424       4.07005015      28.21480577  T        0
H        7.04044424       2.54357215      28.21480577  T        0
