28
Lattice="9.629999999999999 0.0 0.0 4.8149999999999995 8.339824638444142 0.0 0.0 0.0 33.21303999999999" Properties=species:S:1:pos:R:3:move_mask:L:1:tags:I:1 surface_element=Mg miller="0 0 0 1" slab_size="3 3 3" vacuum_angstrom=14.0 fixed_layers=1 fixed_atom_indices="0 1 2 3 4 5 6 7 8" system_name=mg0001_o_pilot_jitter adsorbate=O site=bridge orientation=atom height_angstrom=1.6 lateral_jitter_index=0 lateral_jitter_dx_angstrom=0.0 lateral_jitter_dy_angstrom=0.0 structure_id=46256f03336b7973 pbc="T T T"
Mg       0.00000000       0.00000000      14.00000000  F        3
Mg       3.21000000       0.00000000      14.00000000  F        3
Mg       6.42000000       0.00000000      14.00000000  F        3
Mg       1.60500000       2.77994155      14.00000000  F        3
Mg       4.81500000       2.77994155      14.00000000  F        3
Mg       8.02500000       2.77994155      14.00000000  F        3
Mg       3.21000000       5.55988309      14.00000000  F        3
Mg       6.42000000       5.55988309      14.00000000  F        3
Mg       9.63000000       5.55988309      14.00000000  F        3
Mg      -0.00000000       1.85329436      16.60652000  T        2
Mg       3.21000000       1.85329436      16.60652000  T        2
Mg       6.42000000       1.85329436      16.60652000  T        2
Mg       1.60500000       4.63323591      16.60652000  T        2
Mg       4.81500000       4.63323591      16.60652000  T        2
Mg       8.02500000       4.63323591      16.60652000  T        2
Mg       3.21000000       7.41317746      16.60652000  T        2
Mg       6.42000000       7.41317746      16.60652000  T        2
Mg       9.63000000       7.41317746      16.60652000  T        2
Mg       0.00000000       0.00000000      19.21304000  T        1
Mg       3.21000000       0.00000000      19.21304000  T        1
Mg       6.42000000       0.00000000      19.21304000  T        1
Mg       1.60500000       2.77994155      19.21304000  T        1
Mg       4.81500000       2.77994155      19.21304000  T        1
Mg       8.02500000       2.77994155      19.21304000  T        1
Mg       3.21000000       5.55988309      19.21304000  T        1
Mg       6.42000000       5.55988309      19.21304000  T        1
Mg       9.63000000       5.55988309      19.21304000  T        1
O        2.40750000       1.38997077      20.81304000  T        0
28
Lattice="9.629999999999999 0.0 0.0 4.8149999999999995 8.339824638444142 0.0 0.0 0.0 33.21303999999999" Properties=species:S:1:pos:R:3:move_mask:L:1:tags:I:1 surface_element=Mg miller="0 0 0 1" slab_size="3 3 3" vacuum_angstrom=14.0 fixed_layers=1 fixed_atom_indices="0 1 2 3 4 5 6 7 8" system_name=mg0001_o_pilot_jitter adsorbate=O site=bridge orientation=atom height_angstrom=1.6 lateral_jitter_index=1 lateral_jitter_dx_angstrom=0.25 lateral_jitter_dy_angstrom=0.0 structure_id=32673556c4a07276 pbc="T T T"
Mg       0.00000000       0.00000000      14.00000000  F        3
Mg       3.21000000       0.00000000      14.00000000  F        3
Mg       6.42000000       0.00000000      14.00000000  F        3
Mg       1.60500000       2.77994155      14.00000000  F        3
Mg       4.81500000       2.77994155      14.00000000  F        3
Mg       8.02500000       2.77994155      14.00000000  F        3
Mg       3.21000000       5.55988309      14.00000000  F        3
Mg       6.42000000       5.55988309      14.00000000  F        3
Mg       9.63000000       5.55988309      14.00000000  F        3
Mg      -0.00000000       1.85329436      16.60652000  T        2
Mg       3.21000000       1.85329436      16.60652000  T        2
Mg       6.42000000       1.85329436      16.60652000  T        2
Mg       1.60500000       4.63323591      16.60652000  T        2
Mg       4.81500000       4.63323591      16.60652000  T        2
Mg       8.02500000       4.63323591      16.60652000  T        2
Mg       3.21000000       7.41317746      16.60652000  T        2
Mg       6.42000000       7.41317746      16.60652000  T        2
Mg       9.63000000       7.41317746      16.60652000  T        2
Mg       0.00000000       0.00000000      19.21304000  T        1
Mg       3.21000000       0.00000000      19.21304000  T        1
Mg       6.42000000       0.00000000      19.21304000  T        1
Mg       1.60500000       2.77994155      19.21304000  T        1
Mg       4.81500000       2.77994155      19.21304000  T        1
Mg       8.02500000       2.77994155      19.21304000  T        1
Mg       3.21000000       5.55988309      19.21304000  T        1
Mg       6.42000000       5.55988309      19.21304000  T        1
Mg       9.63000000       5.55988309      19.21304000  T        1
O        1.05250000       1.38997077      20.81304000  T        0
28
Lattice="9.629999999999999 0.0 0.0 4.8149999999999995 8.339824638444142 0.0 0.0 0.0 33.21303999999999" Properties=species:S:1:pos:R:3:move_mask:L:1:tags:I:1 surface_element=Mg miller="0 0 0 1" slab_size="3 3 3" vacuum_angstrom=14.0 fixed_layers=1 fixed_atom_indices="0 1 2 3 4 5 6 7 8" system_name=mg0001_o_pilot_jitter adsorbate=O site=bridge orientation=atom height_angstrom=1.6 lateral_jitter_index=2 lateral_jitter_dx_angstrom=-0.25 lateral_jitter_dy_angstrom=0.0 structure_id=18799da69ead3be3 pbc="T T T"
Mg       0.00000000       0.00000000      14.00000000  F        3
Mg       3.21000000       0.00000000      14.00000000  F        3
Mg       6.42000000       0.00000000      14.00000000  F        3
Mg       1.60500000       2.77994155      14.00000000  F        3
Mg       4.81500000       2.77994155      14.00000000  F        3
Mg       8.02500000       2.77994155      14.00000000  F        3
Mg       3.21000000       5.55988309      14.00000000  F        3
Mg       6.42000000       5.55988309      14.00000000  F        3
Mg       9.63000000       5.55988309      14.00000000  F        3
Mg      -0.00000000       1.85329436      16.60652000  T        2
Mg       3.21000000       1.85329436      16.60652000  T        2
Mg       6.42000000       1.85329436      16.60652000  T        2
Mg       1.60500000       4.63323591      16.60652000  T        2
Mg       4.81500000       4.63323591      16.60652000  T        2
Mg       8.02500000       4.63323591      16.60652000  T        2
Mg       3.21000000       7.41317746      16.60652000  T        2
Mg       6.42000000       7.41317746      16.60652000  T        2
Mg       9.63000000       7.41317746      16.60652000  T        2
Mg       0.00000000       0.00000000      19.21304000  T        1
Mg       3.21000000       0.00000000      19.21304000  T        1
Mg       6.42000000       0.00000000      19.21304000  T        1
Mg       1.60500000       2.77994155      19.21304000  T        1
Mg       4.81500000       2.77994155      19.21304000  T        1
Mg       8.02500000       2.77994155      19.21304000  T        1
Mg       3.21000000       5.55988309      19.21304000  T        1
Mg       6.42000000       5.55988309      19.21304000  T        1
Mg       9.63000000       5.55988309      19.21304000  T        1
O        0.55250000       1.38997077      20.81304000  T        0
28
Lattice="9.629999999999999 0.0 0.0 4.8149999999999995 8.339824638444142 0.0 0.0 0.0 33.21303999999999" Properties=species:S:1:pos:R:3:move_mask:L:1:tags:I:1 surface_element=Mg miller="0 0 0 1" slab_size="3 3 3" vacuum_angstrom=14.0 fixed_layers=1 fixed_atom_indices="0 1 2 3 4 5 6 7 8" system_name=mg0001_o_pilot_jitter adsorbate=O site=bridge orientation=atom height_angstrom=1.6 lateral_jitter_index=3 lateral_jitter_dx_angstrom=0.0 lateral_jitter_dy_angstrom=0.25 structure_id=0199c00b22820d26 pbc="T T T"
Mg       0.00000000       0.00000000      14.00000000  F        3
Mg       3.21000000       0.00000000      14.00000000  F        3
Mg       6.42000000       0.00000000      14.00000000  F        3
Mg       1.60500000       2.77994155      14.00000000  F        3
Mg       4.81500000       2.77994155      14.00000000  F        3
Mg       8.02500000       2.77994155      14.00000000  F        3
Mg       3.21000000       5.55988309      14.00000000  F        3
Mg       6.42000000       5.55988309      14.00000000  F        3
Mg       9.63000000       5.55988309      14.00000000  F        3
Mg      -0.00000000       1.85329436      16.60652000  T        2
Mg       3.21000000       1.85329436      16.60652000  T        2
Mg       6.42000000       1.85329436      16.60652000  T        2
Mg       1.60500000       4.63323591      16.60652000  T        2
Mg       4.81500000       4.63323591      16.60652000  T        2
Mg       8.02500000       4.63323591      16.60652000  T        2
Mg       3.21000000       7.41317746      16.60652000  T        2
Mg       6.42000000       7.41317746      16.60652000  T        2
Mg       9.63000000       7.41317746      16.60652000  T        2
Mg       0.00000000       0.00000000      19.21304000  T        1
Mg       3.21000000       0.00000000      19.21304000  T        1
Mg       6.42000000       0.00000000      19.21304000  T        1
Mg       1.60500000       2.77994155      19.21304000  T        1
Mg       4.81500000       2.77994155      19.21304000  T        1
Mg       8.02500000       2.77994155      19.21304000  T        1
Mg       3.21000000       5.55988309      19.21304000  T        1
Mg       6.42000000       5.55988309      19.21304000  T        1
Mg       9.63000000       5.55988309      19.21304000  T        1
O        0.80250000       1.63997077      20.81304000  T        0
28
Lattice="9.629999999999999 0.0 0.0 4.8149999999999995 8.339824638444142 0.0 0.0 0.0 33.21303999999999" Properties=species:S:1:pos:R:3:move_mask:L:1:tags:I:1 surface_element=Mg miller="0 0 0 1" slab_size="3 3 3" vacuum_angstrom=14.0 fixed_layers=1 fixed_atom_indices="0 1 2 3 4 5 6 7 8" system_name=mg0001_o_pilot_jitter adsorbate=O site=bridge orientation=atom height_angstrom=1.6 lateral_jitter_index=4 lateral_jitter_dx_angstrom=0.0 lateral_jitter_dy_angstrom=-0.25 structure_id=2086432d65d5b674 pbc="T T T"
Mg       0.00000000       0.00000000      14.00000000  F        3
Mg       3.21000000       0.00000000      14.00000000  F        3
Mg       6.42000000       0.00000000      14.00000000  F        3
Mg       1.60500000       2.77994155      14.00000000  F        3
Mg       4.81500000       2.77994155      14.00000000  F        3
Mg       8.02500000       2.77994155      14.00000000  F        3
Mg       3.21000000       5.55988309      14.00000000  F        3
Mg       6.42000000       5.55988309      14.00000000  F        3
Mg       9.63000000       5.55988309      14.00000000  F        3
Mg      -0.00000000       1.85329436      16.60652000  T        2
Mg       3.21000000       1.85329436      16.60652000  T        2
Mg       6.42000000       1.85329436      16.60652000  T        2
Mg       1.60500000       4.63323591      16.60652000  T        2
Mg       4.81500000       4.63323591      16.60652000  T        2
Mg       8.02500000       4.63323591      16.60652000  T        2
Mg       3.21000000       7.41317746      16.60652000  T        2
Mg       6.42000000       7.41317746      16.60652000  T        2
Mg       9.63000000       7.41317746      16.60652000  T        2
Mg       0.00000000       0.00000000      19.21304000  T        1
Mg       3.21000000       0.00000000      19.21304000  T        1
Mg       6.42000000       0.00000000      19.21304000  T        1
Mg       1.60500000       2.77994155      19.21304000  T        1
Mg       4.81500000       2.77994155      19.21304000  T        1
Mg       8.02500000       2.77994155      19.21304000  T        1
Mg       3.21000000       5.55988309      19.21304000  T        1
Mg       6.42000000       5.55988309      19.21304000  T        1
Mg       9.63000000       5.55988309      19.21304000  T        1
O        0.80250000       1.13997077      20.81304000  T        0
28
Lattice="9.629999999999999 0.0 0.0 4.8149999999999995 8.339824638444142 0.0 0.0 0.0 33.21303999999999" Properties=species:S:1:pos:R:3:move_mask:L:1:tags:I:1 surface_element=Mg miller="0 0 0 1" slab_size="3 3 3" vacuum_angstrom=14.0 fixed_layers=1 fixed_atom_indices="0 1 2 3 4 5 6 7 8" system_name=mg0001_o_pilot_jitter adsorbate=O site=bridge orientation=atom height_angstrom=2.0 lateral_jitter_index=0 lateral_jitter_dx_angstrom=0.0 lateral_jitter_dy_angstrom=0.0 structure_id=6abb28fe07b26672 pbc="T T T"
Mg       0.00000000       0.00000000      14.00000000  F        3
Mg       3.21000000       0.00000000      14.00000000  F        3
Mg       6.42000000       0.00000000      14.00000000  F        3
Mg       1.60500000       2.77994155      14.00000000  F        3
Mg       4.81500000       2.77994155      14.00000000  F        3
Mg       8.02500000       2.77994155      14.00000000  F        3
Mg       3.21000000       5.55988309      14.00000000  F        3
Mg       6.42000000       5.55988309      14.00000000  F        3
Mg       9.63000000       5.55988309      14.00000000  F        3
Mg      -0.00000000       1.85329436      16.60652000  T        2
Mg       3.21000000       1.85329436      16.60652000  T        2
Mg       6.42000000       1.85329436      16.60652000  T        2
Mg       1.60500000       4.63323591      16.60652000  T        2
Mg       4.81500000       4.63323591      16.60652000  T        2
Mg       8.02500000       4.63323591      16.60652000  T        2
Mg       3.21000000       7.41317746      16.60652000  T        2
Mg       6.42000000       7.41317746      16.60652000  T        2
Mg       9.63000000       7.41317746      16.60652000  T        2
Mg       0.00000000       0.00000000      19.21304000  T        1
Mg       3.21000000       0.00000000      19.21304000  T        1
Mg       6.42000000       0.00000000      19.21304000  T        1
Mg       1.60500000       2.77994155      19.21304000  T        1
Mg       4.81500000       2.77994155      19.21304000  T        1
Mg       8.02500000       2.77994155      19.21304000  T        1
Mg       3.21000000       5.55988309      19.21304000  T        1
Mg       6.42000000       5.55988309      19.21304000  T        1
Mg       9.63000000       5.55988309      19.21304000  T        1
O        2.40750000       1.38997077      21.21304000  T        0
28
Lattice="9.629999999999999 0.0 0.0 4.8149999999999995 8.339824638444142 0.0 0.0 0.0 33.21303999999999" Properties=species:S:1:pos:R:3:move_mask:L:1:tags:I:1 surface_element=Mg miller="0 0 0 1" slab_size="3 3 3" vacuum_angstrom=14.0 fixed_layers=1 fixed_atom_indices="0 1 2 3 4 5 6 7 8" system_name=mg0001_o_pilot_jitter adsorbate=O site=bridge orientation=atom height_angstrom=2.0 lateral_jitter_index=1 lateral_jitter_dx_angstrom=0.25 lateral_jitter_dy_angstrom=0.0 structure_id=ad9ffa908746cb59 pbc="T T T"
Mg       0.00000000       0.00000000      14.00000000  F        3
Mg       3.21000000       0.00000000      14.00000000  F        3
Mg       6.42000000       0.00000000      14.00000000  F        3
Mg       1.60500000       2.77994155      14.00000000  F        3
Mg       4.81500000       2.77994155      14.00000000  F        3
Mg       8.02500000       2.77994155      14.00000000  F        3
Mg       3.21000000       5.55988309      14.00000000  F        3
Mg       6.42000000       5.55988309      14.00000000  F        3
Mg       9.63000000       5.55988309      14.00000000  F        3
Mg      -0.00000000       1.85329436      16.60652000  T        2
Mg       3.21000000       1.85329436      16.60652000  T        2
Mg       6.42000000       1.85329436      16.60652000  T        2
Mg       1.60500000       4.63323591      16.60652000  T        2
Mg       4.81500000       4.63323591      16.60652000  T        2
Mg       8.02500000       4.63323591      16.60652000  T        2
Mg       3.21000000       7.41317746      16.60652000  T        2
Mg       6.42000000       7.41317746      16.60652000  T        2
Mg       9.63000000       7.41317746      16.60652000  T        2
Mg       0.00000000       0.00000000      19.21304000  T        1
Mg       3.21000000       0.00000000      19.21304000  T        1
Mg       6.42000000       0.00000000      19.21304000  T        1
Mg       1.60500000       2.77994155      19.21304000  T        1
Mg       4.81500000       2.77994155      19.21304000  T        1
Mg       8.02500000       2.77994155      19.21304000  T        1
Mg       3.21000000       5.55988309      19.21304000  T        1
Mg       6.42000000       5.55988309      19.21304000  T        1
Mg       9.63000000       5.55988309      19.21304000  T        1
O        1.05250000       1.38997077      21.21304000  T        0
28
Lattice="9.629999999999999 0.0 0.0 4.8149999999999995 8.339824638444142 0.0 0.0 0.0 33.21303999999999" Properties=species:S:1:pos:R:3:move_mask:L:1:tags:I:1 surface_element=Mg miller="0 0 0 1" slab_size="3 3 3" vacuum_angstrom=14.0 fixed_layers=1 fixed_atom_indices="0 1 2 3 4 5 6 7 8" system_name=mg0001_o_pilot_jitter adsorbate=O site=bridge orientation=atom height_angstrom=2.0 lateral_jitter_index=2 lateral_jitter_dx_angstrom=-0.25 lateral_jitter_dy_angstrom=0.0 structure_id=7dbf152ecbb0fdcb pbc="T T T"
Mg       0.00000000       0.00000000      14.00000000  F        3
Mg       3.21000000       0.00000000      14.00000000  F        3
Mg       6.42000000       0.00000000      14.00000000  F        3
Mg       1.60500000       2.77994155      14.00000000  F        3
Mg       4.81500000       2.77994155      14.00000000  F        3
Mg       8.02500000       2.77994155      14.00000000  F        3
Mg       3.21000000       5.55988309      14.00000000  F        3
Mg       6.42000000       5.55988309      14.00000000  F        3
Mg       9.63000000       5.55988309      14.00000000  F        3
Mg      -0.00000000       1.85329436      16.60652000  T        2
Mg       3.21000000       1.85329436      16.60652000  T        2
Mg       6.42000000       1.85329436      16.60652000  T        2
Mg       1.60500000       4.63323591      16.60652000  T        2
Mg       4.81500000       4.63323591      16.60652000  T        2
Mg       8.02500000       4.63323591      16.60652000  T        2
Mg       3.21000000       7.41317746      16.60652000  T        2
Mg       6.42000000       7.41317746      16.60652000  T        2
Mg       9.63000000       7.41317746      16.60652000  T        2
Mg       0.00000000       0.00000000      19.21304000  T        1
Mg       3.21000000       0.00000000      19.21304000  T        1
Mg       6.42000000       0.00000000      19.21304000  T        1
Mg       1.60500000       2.77994155      19.21304000  T        1
Mg       4.81500000       2.77994155      19.21304000  T        1
Mg       8.02500000       2.77994155      19.21304000  T        1
Mg       3.21000000       5.55988309      19.21304000  T        1
Mg       6.42000000       5.55988309      19.21304000  T        1
Mg       9.63000000       5.55988309      19.21304000  T        1
O        0.55250000       1.38997077      21.21304000  T        0
28
Lattice="9.629999999999999 0.0 0.0 4.8149999999999995 8.339824638444142 0.0 0.0 0.0 33.21303999999999" Properties=species:S:1:pos:R:3:move_mask:L:1:tags:I:1 surface_element=Mg miller="0 0 0 1" slab_size="3 3 3" vacuum_angstrom=14.0 fixed_layers=1 fixed_atom_indices="0 1 2 3 4 5 6 7 8" system_name=mg0001_o_pilot_jitter adsorbate=O site=bridge orientation=atom height_angstrom=2.0 lateral_jitter_index=3 lateral_jitter_dx_angstrom=0.0 lateral_jitter_dy_angstrom=0.25 structure_id=7e2f1fb6c92ddf2f pbc="T T T"
Mg       0.00000000       0.00000000      14.00000000  F        3
Mg       3.21000000       0.00000000      14.00000000  F        3
Mg       6.42000000       0.00000000      14.00000000  F        3
Mg       1.60500000       2.77994155      14.00000000  F        3
Mg       4.81500000       2.77994155      14.00000000  F        3
Mg       8.02500000       2.77994155      14.00000000  F        3
Mg       3.21000000       5.55988309      14.00000000  F        3
Mg       6.42000000       5.55988309      14.00000000  F        3
Mg       9.63000000       5.55988309      14.00000000  F        3
Mg      -0.00000000       1.85329436      16.60652000  T        2
Mg       3.21000000       1.85329436      16.60652000  T        2
Mg       6.42000000       1.85329436      16.60652000  T        2
Mg       1.60500000       4.63323591      16.60652000  T        2
Mg       4.81500000       4.63323591      16.60652000  T        2
Mg       8.02500000       4.63323591      16.60652000  T        2
Mg       3.21000000       7.41317746      16.60652000  T        2
Mg       6.42000000       7.41317746      16.60652000  T        2
Mg       9.63000000       7.41317746      16.60652000  T        2
Mg       0.00000000       0.00000000      19.21304000  T        1
Mg       3.21000000       0.00000000      19.21304000  T        1
Mg       6.42000000       0.00000000      19.21304000  T        1
Mg       1.60500000       2.77994155      19.21304000  T        1
Mg       4.81500000       2.77994155      19.21304000  T        1
Mg       8.02500000       2.77994155      19.21304000  T        1
Mg       3.21000000       5.55988309      19.21304000  T        1
Mg       6.42000000       5.55988309      19.21304000  T        1
Mg       9.63000000       5.55988309      19.21304000  T        1
O        0.80250000       1.63997077      21.21304000  T        0
28
Lattice="9.629999999999999 0.0 0.0 4.8149999999999995 8.339824638444142 0.0 0.0 0.0 33.21303999999999" Properties=species:S:1:pos:R:3:move_mask:L:1:tags:I:1 surface_element=Mg miller="0 0 0 1" slab_size="3 3 3" vacuum_angstrom=14.0 fixed_layers=1 fixed_atom_indices="0 1 2 3 4 5 6 7 8" system_name=mg0001_o_pilot_jitter adsorbate=O site=bridge orientation=atom height_angstrom=2.0 lateral_jitter_index=4 lateral_jitter_dx_angstrom=0.0 lateral_jitter_dy_angstrom=-0.25 structure_id=3e94dc98e10574a6 pbc="T T T"
Mg       0.00000000       0.00000000      14.00000000  F        3
Mg       3.21000000       0.00000000      14.00000000  F        3
Mg       6.42000000       0.00000000      14.00000000  F        3
Mg       1.60500000       2.77994155      14.00000000  F        3
Mg       4.81500000       2.77994155      14.00000000  F        3
Mg       8.02500000       2.77994155      14.00000000  F        3
Mg       3.21000000       5.55988309      14.00000000  F        3
Mg       6.42000000       5.55988309      14.00000000  F        3
Mg       9.63000000       5.55988309      14.00000000  F        3
Mg      -0.00000000       1.85329436      16.60652000  T        2
Mg       3.21000000       1.85329436      16.60652000  T        2
Mg       6.42000000       1.85329436      16.60652000  T        2
Mg       1.60500000       4.63323591      16.60652000  T        2
Mg       4.81500000       4.63323591      16.60652000  T        2
Mg       8.02500000       4.63323591      16.60652000  T        2
Mg       3.21000000       7.41317746      16.60652000  T        2
Mg       6.42000000       7.41317746      16.60652000  T        2
Mg       9.63000000       7.41317746      16.60652000  T        2
Mg       0.00000000       0.00000000      19.21304000  T        1
Mg       3.21000000       0.00000000      19.21304000  T        1
Mg       6.42000000       0.00000000      19.21304000  T        1
Mg       1.60500000       2.77994155      19.21304000  T        1
Mg       4.81500000       2.77994155      19.21304000  T        1
Mg       8.02500000       2.77994155      19.21304000  T        1
Mg       3.21000000       5.55988309      19.21304000  T        1
Mg       6.42000000       5.55988309      19.21304000  T        1
Mg       9.63000000       5.55988309      19.21304000  T        1
O        0.80250000       1.13997077      21.21304000  T        0
28
Lattice="9.629999999999999 0.0 0.0 4.8149999999999995 8.339824638444142 0.0 0.0 0.0 33.21303999999999" Properties=species:S:1:pos:R:3:move_mask:L:1:tags:I:1 surface_element=Mg miller="0 0 0 1" slab_size="3 3 3" vacuum_angstrom=14.0 fixed_layers=1 fixed_atom_indices="0 1 2 3 4 5 6 7 8" system_name=mg0001_o_pilot_jitter adsorbate=O site=bridge orientation=atom height_angstrom=2.4 lateral_jitter_index=0 lateral_jitter_dx_angstrom=0.0 lateral_jitter_dy_angstrom=0.0 structure_id=d129ec3f37fc8539 pbc="T T T"
Mg       0.00000000       0.00000000      14.00000000  F        3
Mg       3.21000000       0.00000000      14.00000000  F        3
Mg       6.42000000       0.00000000      14.00000000  F        3
Mg       1.60500000       2.77994155      14.00000000  F        3
Mg       4.81500000       2.77994155      14.00000000  F        3
Mg       8.02500000       2.77994155      14.00000000  F        3
Mg       3.21000000       5.55988309      14.00000000  F        3
Mg       6.42000000       5.55988309      14.00000000  F        3
Mg       9.63000000       5.55988309      14.00000000  F        3
Mg      -0.00000000       1.85329436      16.60652000  T        2
Mg       3.21000000       1.85329436      16.60652000  T        2
Mg       6.42000000       1.85329436      16.60652000  T        2
Mg       1.60500000       4.63323591      16.60652000  T        2
Mg       4.81500000       4.63323591      16.60652000  T        2
Mg       8.02500000       4.63323591      16.60652000  T        2
Mg       3.21000000       7.41317746      16.60652000  T        2
Mg       6.42000000       7.41317746      16.60652000  T        2
Mg       9.63000000       7.41317746      16.60652000  T        2
Mg       0.00000000       0.00000000      19.21304000  T        1
Mg       3.21000000       0.00000000      19.21304000  T        1
Mg       6.42000000       0.00000000      19.21304000  T        1
Mg       1.60500000       2.77994155      19.21304000  T        1
Mg       4.81500000       2.77994155      19.21304000  T        1
Mg       8.02500000       2.77994155      19.21304000  T        1
Mg       3.21000000       5.55988309      19.21304000  T        1
Mg       6.42000000       5.55988309      19.21304000  T        1
Mg       9.63000000       5.55988309      19.21304000  T        1
O        2.40750000       1.38997077      21.61304000  T        0
28
Lattice="9.629999999999999 0.0 0.0 4.8149999999999995 8.339824638444142 0.0 0.0 0.0 33.21303999999999" Properties=species:S:1:pos:R:3:move_mask:L:1:tags:I:1 surface_element=Mg miller="0 0 0 1" slab_size="3 3 3" vacuum_angstrom=14.0 fixed_layers=1 fixed_atom_indices="0 1 2 3 4 5 6 7 8" system_name=mg0001_o_pilot_jitter adsorbate=O site=bridge orientation=atom height_angstrom=2.4 lateral_jitter_index=1 lateral_jitter_dx_angstrom=0.25 lateral_jitter_dy_angstrom=0.0 structure_id=47925b0a9b788d7c pbc="T T T"
Mg       0.00000000       0.00000000      14.00000000  F        3
Mg       3.21000000       0.00000000      14.00000000  F        3
Mg       6.42000000       0.00000000      14.00000000  F        3
Mg       1.60500000       2.77994155      14.00000000  F        3
Mg       4.81500000       2.77994155      14.00000000  F        3
Mg       8.02500000       2.77994155      14.00000000  F        3
Mg       3.21000000       5.55988309      14.00000000  F        3
Mg       6.42000000       5.55988309      14.00000000  F        3
Mg       9.63000000       5.55988309      14.00000000  F        3
Mg      -0.00000000       1.85329436      16.60652000  T        2
Mg       3.21000000       1.85329436      16.60652000  T        2
Mg       6.42000000       1.85329436      16.60652000  T        2
Mg       1.60500000       4.63323591      16.60652000  T        2
Mg       4.81500000       4.63323591      16.60652000  T        2
Mg       8.02500000       4.63323591      16.60652000  T        2
Mg       3.21000000       7.41317746      16.60652000  T        2
Mg       6.42000000       7.41317746      16.60652000  T        2
Mg       9.63000000       7.41317746      16.60652000  T        2
Mg       0.00000000       0.00000000      19.21304000  T        1
Mg       3.21000000       0.00000000      19.21304000  T        1
Mg       6.42000000       0.00000000      19.21304000  T        1
Mg       1.60500000       2.77994155      19.21304000  T        1
Mg       4.81500000       2.77994155      19.21304000  T        1
Mg       8.02500000       2.77994155      19.21304000  T        1
Mg       3.21000000       5.55988309      19.21304000  T        1
Mg       6.42000000       5.55988309      19.21304000  T        1
Mg       9.63000000       5.55988309      19.21304000  T        1
O        1.05250000       1.38997077      21.61304000  T        0
28
Lattice="9.629999999999999 0.0 0.0 4.8149999999999995 8.339824638444142 0.0 0.0 0.0 33.21303999999999" Properties=species:S:1:pos:R:3:move_mask:L:1:tags:I:1 surface_element=Mg miller="0 0 0 1" slab_size="3 3 3" vacuum_angstrom=14.0 fixed_layers=1 fixed_atom_indices="0 1 2 3 4 5 6 7 8" system_name=mg0001_o_pilot_jitter adsorbate=O site=bridge orientation=atom height_angstrom=2.4 lateral_jitter_index=2 lateral_jitter_dx_angstrom=-0.25 lateral_jitter_dy_angstrom=0.0 structure_id=71b0e55452147998 pbc="T T T"
Mg       0.00000000       0.00000000      14.00000000  F        3
Mg       3.21000000       0.00000000      14.00000000  F        3
Mg       6.42000000       0.00000000      14.00000000  F        3
Mg       1.60500000       2.77994155      14.00000000  F        3
Mg       4.81500000       2.77994155      14.00000000  F        3
Mg       8.02500000       2.77994155      14.00000000  F        3
Mg       3.21000000       5.55988309      14.00000000  F        3
Mg       6.42000000       5.55988309      14.00000000  F        3
Mg       9.63000000       5.55988309      14.00000000  F        3
Mg      -0.00000000       1.85329436      16.60652000  T        2
Mg       3.21000000       1.85329436      16.60652000  T        2
Mg       6.42000000       1.85329436      16.60652000  T        2
Mg       1.60500000       4.63323591      16.60652000  T        2
Mg       4.81500000       4.63323591      16.60652000  T        2
Mg       8.02500000       4.63323591      16.60652000  T        2
Mg       3.21000000       7.41317746      16.60652000  T        2
Mg       6.42000000       7.41317746      16.60652000  T        2
Mg       9.63000000       7.41317746      16.60652000  T        2
Mg       0.00000000       0.00000000      19.21304000  T        1
Mg       3.21000000       0.00000000      19.21304000  T        1
Mg       6.42000000       0.00000000      19.21304000  T        1
Mg       1.60500000       2.77994155      19.21304000  T        1
Mg       4.81500000       2.77994155      19.21304000  T        1
Mg       8.02500000       2.77994155      19.21304000  T        1
Mg       3.21000000       5.55988309      19.21304000  T        1
Mg       6.42000000       5.55988309      19.21304000  T        1
Mg       9.63000000       5.55988309      19.21304000  T        1
O        0.55250000       1.38997077      21.61304000  T        0
28
Lattice="9.629999999999999 0.0 0.0 4.8149999999999995 8.339824638444142 0.0 0.0 0.0 33.21303999999999" Properties=species:S:1:pos:R:3:move_mask:L:1:tags:I:1 surface_element=Mg miller="0 0 0 1" slab_size="3 3 3" vacuum_angstrom=14.0 fixed_layers=1 fixed_atom_indices="0 1 2 3 4 5 6 7 8" system_name=mg0001_o_pilot_jitter adsorbate=O site=bridge orientation=atom height_angstrom=2.4 lateral_jitter_index=3 lateral_jitter_dx_angstrom=0.0 lateral_jitter_dy_angstrom=0.25 structure_id=f5b49681ac2ee211 pbc="T T T"
Mg       0.00000000       0.00000000      14.00000000  F        3
Mg       3.21000000       0.00000000      14.00000000  F        3
Mg       6.42000000       0.00000000      14.00000000  F        3
Mg       1.60500000       2.77994155      14.00000000  F        3
Mg       4.81500000       2.77994155      14.00000000  F        3
Mg       8.02500000       2.77994155      14.00000000  F        3
Mg       3.21000000       5.55988309      14.00000000  F        3
Mg       6.42000000       5.55988309      14.00000000  F        3
Mg       9.63000000       5.55988309      14.00000000  F        3
Mg      -0.00000000       1.85329436      16.60652000  T        2
Mg       3.21000000       1.85329436      16.60652000  T        2
Mg       6.42000000       1.85329436      16.60652000  T        2
Mg       1.60500000       4.63323591      16.60652000  T        2
Mg       4.81500000       4.63323591      16.60652000  T        2
Mg       8.02500000       4.63323591      16.60652000  T        2
Mg       3.21000000       7.41317746      16.60652000  T        2
Mg       6.42000000       7.41317746      16.60652000  T        2
Mg       9.63000000       7.41317746      16.60652000  T        2
Mg       0.00000000       0.00000000      19.21304000  T        1
Mg       3.21000000       0.00000000      19.21304000  T        1
Mg       6.42000000       0.00000000      19.21304000  T        1
Mg       1.60500000       2.77994155      19.21304000  T        1
Mg       4.81500000       2.77994155      19.21304000  T        1
Mg       8.02500000       2.77994155      19.21304000  T        1
Mg       3.21000000       5.55988309      19.21304000  T        1
Mg       6.42000000       5.55988309      19.21304000  T        1
Mg       9.63000000       5.55988309      19.21304000  T        1
O        0.80250000       1.63997077      21.61304000  T        0
28
Lattice="9.629999999999999 0.0 0.0 4.8149999999999995 8.339824638444142 0.0 0.0 0.0 33.21303999999999" Properties=species:S:1:pos:R:3:move_mask:L:1:tags:I:1 surface_element=Mg miller="0 0 0 1" slab_size="3 3 3" vacuum_angstrom=14.0 fixed_layers=1 fixed_atom_indices="0 1 2 3 4 5 6 7 8" system_name=mg0001_o_pilot_jitter adsorbate=O site=bridge orientation=atom height_angstrom=2.4 lateral_jitter_index=4 lateral_jitter_dx_angstrom=0.0 lateral_jitter_dy_angstrom=-0.25 structure_id=6a8fb628258f00a6 pbc="T T T"
Mg       0.00000000       0.00000000      14.00000000  F        3
Mg       3.21000000       0.00000000      14.00000000  F        3
Mg       6.42000000       0.00000000      14.00000000  F        3
Mg       1.60500000       2.77994155      14.00000000  F        3
Mg       4.81500000       2.77994155      14.00000000  F        3
Mg       8.02500000       2.77994155      14.00000000  F        3
Mg       3.21000000       5.55988309      14.00000000  F        3
Mg       6.42000000       5.55988309      14.00000000  F        3
Mg       9.63000000       5.55988309      14.00000000  F        3
Mg      -0.00000000       1.85329436      16.60652000  T        2
Mg       3.21000000       1.85329436      16.60652000  T        2
Mg       6.42000000       1.85329436      16.60652000  T        2
Mg       1.60500000       4.63323591      16.60652000  T        2
Mg       4.81500000       4.63323591      16.60652000  T        2
Mg       8.02500000       4.63323591      16.60652000  T        2
Mg       3.21000000       7.41317746      16.60652000  T        2
Mg       6.42000000       7.41317746      16.60652000  T        2
Mg       9.63000000       7.41317746      16.60652000  T        2
Mg       0.00000000       0.00000000      19.21304000  T        1
Mg       3.21000000       0.00000000      19.21304000  T        1
Mg       6.42000000       0.00000000      19.21304000  T        1
Mg       1.60500000       2.77994155      19.21304000  T        1
Mg       4.81500000       2.77994155      19.21304000  T        1
Mg       8.02500000       2.77994155      19.21304000  T        1
Mg       3.21000000       5.55988309      19.21304000  T        1
Mg       6.42000000       5.55988309      19.21304000  T        1
Mg       9.63000000       5.55988309      19.21304000  T        1
O        0.80250000       1.13997077      21.61304000  T        0
28
Lattice="9.629999999999999 0.0 0.0 4.8149999999999995 8.339824638444142 0.0 0.0 0.0 33.21303999999999" Properties=species:S:1:pos:R:3:move_mask:L:1:tags:I:1 surface_element=Mg miller="0 0 0 1" slab_size="3 3 3" vacuum_angstrom=14.0 fixed_layers=1 fixed_atom_indices="0 1 2 3 4 5 6 7 8" system_name=mg0001_o_pilot_jitter adsorbate=O site=fcc orientation=atom height_angstrom=1.6 lateral_jitter_index=0 lateral_jitter_dx_angstrom=0.0 lateral_jitter_dy_angstrom=0.0 structure_id=f1838a9992e7c8be pbc="T T T"
Mg       0.00000000       0.00000000      14.00000000  F        3
Mg       3.21000000       0.00000000      14.00000000  F        3
Mg       6.42000000       0.00000000      14.00000000  F        3
Mg       1.60500000       2.77994155      14.00000000  F        3
Mg       4.81500000       2.77994155      14.00000000  F        3
Mg       8.02500000       2.77994155      14.00000000  F        3
Mg       3.21000000       5.55988309      14.00000000  F        3
Mg       6.42000000       5.55988309      14.00000000  F        3
Mg       9.63000000       5.55988309      14.00000000  F        3
Mg      -0.00000000       1.85329436      16.60652000  T        2
Mg       3.21000000       1.85329436      16.60652000  T        2
Mg       6.42000000       1.85329436      16.60652000  T        2
Mg       1.60500000       4.63323591      16.60652000  T        2
Mg       4.81500000       4.63323591      16.60652000  T        2
Mg       8.02500000       4.63323591      16.60652000  T        2
Mg       3.21000000       7.41317746      16.60652000  T        2
Mg       6.42000000       7.41317746      16.60652000  T        2
Mg       9.63000000       7.41317746      16.60652000  T        2
Mg       0.00000000       0.00000000      19.21304000  T        1
Mg       3.21000000       0.00000000      19.21304000  T        1
Mg       6.42000000       0.00000000      19.21304000  T        1
Mg       1.60500000       2.77994155      19.21304000  T        1
Mg       4.81500000       2.77994155      19.21304000  T        1
Mg       8.02500000       2.77994155      19.21304000  T        1
Mg       3.21000000       5.55988309      19.21304000  T        1
Mg       6.42000000       5.55988309      19.21304000  T        1
Mg       9.63000000       5.55988309      19.21304000  T        1
O        3.74500000       4.63323591      20.81304000  T        0
28
Lattice="9.629999999999999 0.0 0.0 4.8149999999999995 8.339824638444142 0.0 0.0 0.0 33.21303999999999" Properties=species:S:1:pos:R:3:move_mask:L:1:tags:I:1 surface_element=Mg miller="0 0 0 1" slab_size="3 3 3" vacuum_angstrom=14.0 fixed_layers=1 fixed_atom_indices="0 1 2 3 4 5 6 7 8" system_name=mg0001_o_pilot_jitter adsorbate=O site=fcc orientation=atom height_angstrom=1.6 lateral_jitter_index=1 lateral_jitter_dx_angstrom=0.25 lateral_jitter_dy_angstrom=0.0 structure_id=7b0f11712b44f059 pbc="T T T"
Mg       0.00000000       0.00000000      14.00000000  F        3
Mg       3.21000000       0.00000000      14.00000000  F        3
Mg       6.42000000       0.00000000      14.00000000  F        3
Mg       1.60500000       2.77994155      14.00000000  F        3
Mg       4.81500000       2.77994155      14.00000000  F        3
Mg       8.02500000       2.77994155      14.00000000  F        3
Mg       3.21000000       5.55988309      14.00000000  F        3
Mg       6.42000000       5.55988309      14.00000000  F        3
Mg       9.63000000       5.55988309      14.00000000  F        3
Mg      -0.00000000       1.85329436      16.60652000  T        2
Mg       3.21000000       1.85329436      16.60652000  T        2
Mg       6.42000000       1.85329436      16.60652000  T        2
Mg       1.60500000       4.63323591      16.60652000  T        2
Mg       4.81500000       4.63323591      16.60652000  T        2
Mg       8.02500000       4.63323591      16.60652000  T        2
Mg       3.21000000       7.41317746      16.60652000  T        2
Mg       6.42000000       7.41317746      16.60652000  T        2
Mg       9.63000000       7.41317746      16.60652000  T        2
Mg       0.00000000       0.00000000      19.21304000  T        1
Mg       3.21000000       0.00000000      19.21304000  T        1
Mg       6.42000000       0.00000000      19.21304000  T        1
Mg       1.60500000       2.77994155      19.21304000  T        1
Mg       4.81500000       2.77994155      19.21304000  T        1
Mg       8.02500000       2.77994155      19.21304000  T        1
Mg       3.21000000       5.55988309      19.21304000  T        1
Mg       6.42000000       5.55988309      19.21304000  T        1
Mg       9.63000000       5.55988309      19.21304000  T        1
O        5.06500000       0.92664718      20.81304000  T        0
28
Lattice="9.629999999999999 0.0 0.0 4.8149999999999995 8.339824638444142 0.0 0.0 0.0 33.21303999999999" Properties=species:S:1:pos:R:3:move_mask:L:1:tags:I:1 surface_element=Mg miller="0 0 0 1" slab_size="3 3 3" vacuum_angstrom=14.0 fixed_layers=1 fixed_atom_indices="0 1 2 3 4 5 6 7 8" system_name=mg0001_o_pilot_jitter adsorbate=O site=fcc orientation=atom height_angstrom=1.6 lateral_jitter_index=2 lateral_jitter_dx_angstrom=-0.25 lateral_jitter_dy_angstrom=0.0 structure_id=45501646315b908c pbc="T T T"
Mg       0.00000000       0.00000000      14.00000000  F        3
Mg       3.21000000       0.00000000      14.00000000  F        3
Mg       6.42000000       0.00000000      14.00000000  F        3
Mg       1.60500000       2.77994155      14.00000000  F        3
Mg       4.81500000       2.77994155      14.00000000  F        3
Mg       8.02500000       2.77994155      14.00000000  F        3
Mg       3.21000000       5.55988309      14.00000000  F        3
Mg       6.42000000       5.55988309      14.00000000  F        3
Mg       9.63000000       5.55988309      14.00000000  F        3
Mg      -0.00000000       1.85329436      16.60652000  T        2
Mg       3.21000000       1.85329436      16.60652000  T        2
Mg       6.42000000       1.85329436      16.60652000  T        2
Mg       1.60500000       4.63323591      16.60652000  T        2
Mg       4.81500000       4.63323591      16.60652000  T        2
Mg       8.02500000       4.63323591      16.60652000  T        2
Mg       3.21000000       7.41317746      16.60652000  T        2
Mg       6.42000000       7.41317746      16.60652000  T        2
Mg       9.63000000       7.41317746      16.60652000  T        2
Mg       0.00000000       0.00000000      19.21304000  T        1
Mg       3.21000000       0.00000000      19.21304000  T        1
Mg       6.42000000       0.00000000      19.21304000  T        1
Mg       1.60500000       2.77994155      19.21304000  T        1
Mg       4.81500000       2.77994155      19.21304000  T        1
Mg       8.02500000       2.77994155      19.21304000  T        1
Mg       3.21000000       5.55988309      19.21304000  T        1
Mg       6.42000000       5.55988309      19.21304000  T        1
Mg       9.63000000       5.55988309      19.21304000  T        1
O        4.56500000       0.92664718      20.81304000  T        0
28
Lattice="9.629999999999999 0.0 0.0 4.8149999999999995 8.339824638444142 0.0 0.0 0.0 33.21303999999999" Properties=species:S:1:pos:R:3:move_mask:L:1:tags:I:1 surface_element=Mg miller="0 0 0 1" slab_size="3 3 3" vacuum_angstrom=14.0 fixed_layers=1 fixed_atom_indices="0 1 2 3 4 5 6 7 8" system_name=mg0001_o_pilot_jitter adsorbate=O site=fcc orientation=atom height_angstrom=1.6 lateral_jitter_index=3 lateral_jitter_dx_angstrom=0.0 lateral_jitter_dy_angstrom=0.25 structure_id=189ae59fca9f9df9 pbc="T T T"
Mg       0.00000000       0.00000000      14.00000000  F        3
Mg       3.21000000       0.00000000      14.00000000  F        3
Mg       6.42000000       0.00000000      14.00000000  F        3
Mg       1.60500000       2.77994155      14.00000000  F        3
Mg       4.81500000       2.77994155      14.00000000  F        3
Mg       8.02500000       2.77994155      14.00000000  F        3
Mg       3.21000000       5.55988309      14.00000000  F        3
Mg       6.42000000       5.55988309      14.00000000  F        3
Mg       9.63000000       5.55988309      14.00000000  F        3
Mg      -0.00000000       1.85329436      16.60652000  T        2
Mg       3.21000000       1.85329436      16.60652000  T        2
Mg       6.42000000       1.85329436      16.60652000  T        2
Mg       1.60500000       4.63323591      16.60652000  T        2
Mg       4.81500000       4.63323591      16.60652000  T        2
Mg       8.02500000       4.63323591      16.60652000  T        2
Mg       3.21000000       7.41317746      16.60652000  T        2
Mg       6.42000000       7.41317746      16.60652000  T        2
Mg       9.63000000       7.41317746      16.60652000  T        2
Mg       0.00000000       0.00000000      19.21304000  T        1
Mg       3.21000000       0.00000000      19.21304000  T        1
Mg       6.42000000       0.00000000      19.21304000  T        1
Mg       1.60500000       2.77994155      19.21304000  T        1
Mg       4.81500000       2.77994155      19.21304000  T        1
Mg       8.02500000       2.77994155      19.21304000  T        1
Mg       3.21000000       5.55988309      19.21304000  T        1
Mg       6.42000000       5.55988309      19.21304000  T        1
Mg       9.63000000       5.55988309      19.21304000  T        1
O        4.81500000       1.17664718      20.81304000  T        0
28
Lattice="9.629999999999999 0.0 0.0 4.8149999999999995 8.339824638444142 0.0 0.0 0.0 33.21303999999999" Properties=species:S:1:pos:R:3:move_mask:L:1:tags:I:1 surface_element=Mg miller="0 0 0 1" slab_size="3 3 3" vacuum_angstrom=14.0 fixed_layers=1 fixed_atom_indices="0 1 2 3 4 5 6 7 8" system_name=mg0001_o_pilot_jitter adsorbate=O site=fcc orientation=atom height_angstrom=1.6 lateral_jitter_index=4 lateral_jitter_dx_angstrom=0.0 lateral_jitter_dy_angstrom=-0.25 structure_id=69aaec84192aacba pbc="T T T"
Mg       0.00000000       0.00000000      14.00000000  F        3
Mg       3.21000000       0.00000000      14.00000000  F        3
Mg       6.42000000       0.00000000      14.00000000  F        3
Mg       1.60500000       2.77994155      14.00000000  F        3
Mg       4.81500000       2.77994155      14.00000000  F        3
Mg       8.02500000       2.77994155      14.00000000  F        3
Mg       3.21000000       5.55988309      14.00000000  F        3
Mg       6.42000000       5.55988309      14.00000000  F        3
Mg       9.63000000       5.55988309      14.00000000  F        3
Mg      -0.00000000       1.85329436      16.60652000  T        2
Mg       3.21000000       1.85329436      16.60652000  T        2
Mg       6.42000000       1.85329436      16.60652000  T        2
Mg       1.60500000       4.63323591      16.60652000  T        2
Mg       4.81500000       4.63323591      16.60652000  T        2
Mg       8.02500000       4.63323591      16.60652000  T        2
Mg       3.21000000       7.41317746      16.60652000  T        2
Mg       6.42000000       7.41317746      16.60652000  T        2
Mg       9.63000000       7.41317746      16.60652000  T        2
Mg       0.00000000       0.00000000      19.21304000  T        1
Mg       3.21000000       0.00000000      19.21304000  T        1
Mg       6.42000000       0.00000000      19.21304000  T        1
Mg       1.60500000       2.77994155      19.21304000  T        1
Mg       4.81500000       2.77994155      19.21304000  T        1
Mg       8.02500000       2.77994155      19.21304000  T        1
Mg       3.21000000       5.55988309      19.21304000  T        1
Mg       6.42000000       5.55988309      19.21304000  T        1
Mg       9.63000000       5.55988309      19.21304000  T        1
O        4.81500000       0.67664718      20.81304000  T        0
28
Lattice="9.629999999999999 0.0 0.0 4.8149999999999995 8.339824638444142 0.0 0.0 0.0 33.21303999999999" Properties=species:S:1:pos:R:3:move_mask:L:1:tags:I:1 surface_element=Mg miller="0 0 0 1" slab_size="3 3 3" vacuum_angstrom=14.0 fixed_layers=1 fixed_atom_indices="0 1 2 3 4 5 6 7 8" system_name=mg0001_o_pilot_jitter adsorbate=O site=fcc orientation=atom height_angstrom=2.0 lateral_jitter_index=0 lateral_jitter_dx_angstrom=0.0 lateral_jitter_dy_angstrom=0.0 structure_id=0f49ac057057c823 pbc="T T T"
Mg       0.00000000       0.00000000      14.00000000  F        3
Mg       3.21000000       0.00000000      14.00000000  F        3
Mg       6.42000000       0.00000000      14.00000000  F        3
Mg       1.60500000       2.77994155      14.00000000  F        3
Mg       4.81500000       2.77994155      14.00000000  F        3
Mg       8.02500000       2.77994155      14.00000000  F        3
Mg       3.21000000       5.55988309      14.00000000  F        3
Mg       6.42000000       5.55988309      14.00000000  F        3
Mg       9.63000000       5.55988309      14.00000000  F        3
Mg      -0.00000000       1.85329436      16.60652000  T        2
Mg       3.21000000       1.85329436      16.60652000  T        2
Mg       6.42000000       1.85329436      16.60652000  T        2
Mg       1.60500000       4.63323591      16.60652000  T        2
Mg       4.81500000       4.63323591      16.60652000  T        2
Mg       8.02500000       4.63323591      16.60652000  T        2
Mg       3.21000000       7.41317746      16.60652000  T        2
Mg       6.42000000       7.41317746      16.60652000  T        2
Mg       9.63000000       7.41317746      16.60652000  T        2
Mg       0.00000000       0.00000000      19.21304000  T        1
Mg       3.21000000       0.00000000      19.21304000  T        1
Mg       6.42000000       0.00000000      19.21304000  T        1
Mg       1.60500000       2.77994155      19.21304000  T        1
Mg       4.81500000       2.77994155      19.21304000  T        1
Mg       8.02500000       2.77994155      19.21304000  T        1
Mg       3.21000000       5.55988309      19.21304000  T        1
Mg       6.42000000       5.55988309      19.21304000  T        1
Mg       9.63000000       5.55988309      19.21304000  T        1
O        3.74500000       4.63323591      21.21304000  T        0
28
Lattice="9.629999999999999 0.0 0.0 4.8149999999999995 8.339824638444142 0.0 0.0 0.0 33.21303999999999" Properties=species:S:1:pos:R:3:move_mask:L:1:tags:I:1 surface_element=Mg miller="0 0 0 1" slab_size="3 3 3" vacuum_angstrom=14.0 fixed_layers=1 fixed_atom_indices="0 1 2 3 4 5 6 7 8" system_name=mg0001_o_pilot_jitter adsorbate=O site=fcc orientation=atom height_angstrom=2.0 lateral_jitter_index=1 lateral_jitter_dx_angstrom=0.25 lateral_jitter_dy_angstrom=0.0 structure_id=6c9de9732ccb462b pbc="T T T"
Mg       0.00000000       0.00000000      14.00000000  F        3
Mg       3.21000000       0.00000000      14.00000000  F        3
Mg       6.42000000       0.00000000      14.00000000  F        3
Mg       1.60500000       2.77994155      14.00000000  F        3
Mg       4.81500000       2.77994155      14.00000000  F        3
Mg       8.02500000       2.77994155      14.00000000  F        3
Mg       3.21000000       5.55988309      14.00000000  F        3
Mg       6.42000000       5.55988309      14.00000000  F        3
Mg       9.63000000       5.55988309      14.00000000  F        3
Mg      -0.00000000       1.85329436      16.60652000  T        2
Mg       3.21000000       1.85329436      16.60652000  T        2
Mg       6.42000000       1.85329436      16.60652000  T        2
Mg       1.60500000       4.63323591      16.60652000  T        2
Mg       4.81500000       4.63323591      16.60652000  T        2
Mg       8.02500000       4.63323591      16.60652000  T        2
Mg       3.21000000       7.41317746      16.60652000  T        2
Mg       6.42000000       7.41317746      16.60652000  T        2
Mg       9.63000000       7.41317746      16.60652000  T        2
Mg       0.00000000       0.00000000      19.21304000  T        1
Mg       3.21000000       0.00000000      19.21304000  T        1
Mg       6.42000000       0.00000000      19.21304000  T        1
Mg       1.60500000       2.77994155      19.21304000  T        1
Mg       4.81500000       2.77994155      19.21304000  T        1
Mg       8.02500000       2.77994155      19.21304000  T        1
Mg       3.21000000       5.55988309      19.21304000  T        1
Mg       6.42000000       5.55988309      19.21304000  T        1
Mg       9.63000000       5.55988309      19.21304000  T        1
O        5.06500000       0.92664718      21.21304000  T        0
28
Lattice="9.629999999999999 0.0 0.0 4.8149999999999995 8.339824638444142 0.0 0.0 0.0 33.21303999999999" Properties=species:S:1:pos:R:3:move_mask:L:1:tags:I:1 surface_element=Mg miller="0 0 0 1" slab_size="3 3 3" vacuum_angstrom=14.0 fixed_layers=1 fixed_atom_indices="0 1 2 3 4 5 6 7 8" system_name=mg0001_o_pilot_jitter adsorbate=O site=fcc orientation=atom height_angstrom=2.0 lateral_jitter_index=2 lateral_jitter_dx_angstrom=-0.25 lateral_jitter_dy_angstrom=0.0 structure_id=fbcecd84fda13ba1 pbc="T T T"
Mg       0.00000000       0.00000000      14.00000000  F        3
Mg       3.21000000       0.00000000      14.00000000  F        3
Mg       6.42000000       0.00000000      14.00000000  F        3
Mg       1.60500000       2.77994155      14.00000000  F        3
Mg       4.81500000       2.77994155      14.00000000  F        3
Mg       8.02500000       2.77994155      14.00000000  F        3
Mg       3.21000000       5.55988309      14.00000000  F        3
Mg       6.42000000       5.55988309      14.00000000  F        3
Mg       9.63000000       5.55988309      14.00000000  F        3
Mg      -0.00000000       1.85329436      16.60652000  T        2
Mg       3.21000000       1.85329436      16.60652000  T        2
Mg       6.42000000       1.85329436      16.60652000  T        2
Mg       1.60500000       4.63323591      16.60652000  T        2
Mg       4.81500000       4.63323591      16.60652000  T        2
Mg       8.02500000       4.63323591      16.60652000  T        2
Mg       3.21000000       7.41317746      16.60652000  T        2
Mg       6.42000000       7.41317746      16.60652000  T        2
Mg       9.63000000       7.41317746      16.60652000  T        2
Mg       0.00000000       0.00000000      19.21304000  T        1
Mg       3.21000000       0.00000000      19.21304000  T        1
Mg       6.42000000       0.00000000      19.21304000  T        1
Mg       1.60500000       2.77994155      19.21304000  T        1
Mg       4.81500000       2.77994155      19.21304000  T        1
Mg       8.02500000       2.77994155      19.21304000  T        1
Mg       3.21000000       5.55988309      19.21304000  T        1
Mg       6.42000000       5.55988309      19.21304000  T        1
Mg       9.63000000       5.55988309      19.21304000  T        1
O        4.56500000       0.92664718      21.21304000  T        0
28
Lattice="9.629999999999999 0.0 0.0 4.8149999999999995 8.339824638444142 0.0 0.0 0.0 33.21303999999999" Properties=species:S:1:pos:R:3:move_mask:L:1:tags:I:1 surface_element=Mg miller="0 0 0 1" slab_size="3 3 3" vacuum_angstrom=14.0 fixed_layers=1 fixed_atom_indices="0 1 2 3 4 5 6 7 8" system_name=mg0001_o_pilot_jitter adsorbate=O site=fcc orientation=atom height_angstrom=2.0 lateral_jitter_index=3 lateral_jitter_dx_angstrom=0.0 lateral_jitter_dy_angstrom=0.25 structure_id=3d67f03958e4b24f pbc="T T T"
Mg       0.00000000       0.00000000      14.00000000  F        3
Mg       3.21000000       0.00000000      14.00000000  F        3
Mg       6.42000000       0.00000000      14.00000000  F        3
Mg       1.60500000       2.77994155      14.00000000  F        3
Mg       4.81500000       2.77994155      14.00000000  F        3
Mg       8.02500000       2.77994155      14.00000000  F        3
Mg       3.21000000       5.55988309      14.00000000  F        3
Mg       6.42000000       5.55988309      14.00000000  F        3
Mg       9.63000000       5.55988309      14.00000000  F        3
Mg      -0.00000000       1.85329436      16.60652000  T        2
Mg       3.21000000       1.85329436      16.60652000  T        2
Mg       6.42000000       1.85329436      16.60652000  T        2
Mg       1.60500000       4.63323591      16.60652000  T        2
Mg       4.81500000       4.63323591      16.60652000  T        2
Mg       8.02500000       4.63323591      16.60652000  T        2
Mg       3.21000000       7.41317746      16.60652000  T        2
Mg       6.42000000       7.41317746      16.60652000  T        2
Mg       9.63000000       7.41317746      16.60652000  T        2
Mg       0.00000000       0.00000000      19.21304000  T        1
Mg       3.21000000       0.00000000      19.21304000  T        1
Mg       6.42000000       0.00000000      19.21304000  T        1
Mg       1.60500000       2.77994155      19.21304000  T        1
Mg       4.81500000       2.77994155      19.21304000  T        1
Mg       8.02500000       2.77994155      19.21304000  T        1
Mg       3.21000000       5.55988309      19.21304000  T        1
Mg       6.42000000       5.55988309      19.21304000  T        1
Mg       9.63000000       5.55988309      19.21304000  T        1
O        4.81500000       1.17664718      21.21304000  T        0
28
Lattice="9.629999999999999 0.0 0.0 4.8149999999999995 8.339824638444142 0.0 0.0 0.0 33.21303999999999" Properties=species:S:1:pos:R:3:move_mask:L:1:tags:I:1 surface_element=Mg miller="0 0 0 1" slab_size="3 3 3" vacuum_angstrom=14.0 fixed_layers=1 fixed_atom_indices="0 1 2 3 4 5 6 7 8" system_name=mg0001_o_pilot_jitter adsorbate=O site=fcc orientation=atom height_angstrom=2.0 lateral_jitter_index=4 lateral_jitter_dx_angstrom=0.0 lateral_jitter_dy_angstrom=-0.25 structure_id=5938799807f78886 pbc="T T T"
Mg       0.00000000       0.00000000      14.00000000  F        3
Mg       3.21000000       0.00000000      14.00000000  F        3
Mg       6.42000000       0.00000000      14.00000000  F        3
Mg       1.60500000       2.77994155      14.00000000  F        3
Mg       4.81500000       2.77994155      14.00000000  F        3
Mg       8.02500000       2.77994155      14.00000000  F        3
Mg       3.21000000       5.55988309      14.00000000  F        3
Mg       6.42000000       5.55988309      14.00000000  F        3
Mg       9.63000000       5.55988309      14.00000000  F        3
Mg      -0.00000000       1.85329436      16.60652000  T        2
Mg       3.21000000       1.85329436      16.60652000  T        2
Mg       6.42000000       1.85329436      16.60652000  T        2
Mg       1.60500000       4.63323591      16.60652000  T        2
Mg       4.81500000       4.63323591      16.60652000  T        2
Mg       8.02500000       4.63323591      16.60652000  T        2
Mg       3.21000000       7.41317746      16.60652000  T        2
Mg       6.42000000       7.41317746      16.60652000  T        2
Mg       9.63000000       7.41317746      16.60652000  T        2
Mg       0.00000000       0.00000000      19.21304000  T        1
Mg       3.21000000       0.00000000      19.21304000  T        1
Mg       6.42000000       0.00000000      19.21304000  T        1
Mg       1.60500000       2.77994155      19.21304000  T        1
Mg       4.81500000       2.77994155      19.21304000  T        1
Mg       8.02500000       2.77994155      19.21304000  T        1
Mg       3.21000000       5.55988309      19.21304000  T        1
Mg       6.42000000       5.55988309      19.21304000  T        1
Mg       9.63000000       5.55988309      19.21304000  T        1
O        4.81500000       0.67664718      21.21304000  T        0
28
Lattice="9.629999999999999 0.0 0.0 4.8149999999999995 8.339824638444142 0.0 0.0 0.0 33.21303999999999" Properties=species:S:1:pos:R:3:move_mask:L:1:tags:I:1 surface_element=Mg miller="0 0 0 1" slab_size="3 3 3" vacuum_angstrom=14.0 fixed_layers=1 fixed_atom_indices="0 1 2 3 4 5 6 7 8" system_name=mg0001_o_pilot_jitter adsorbate=O site=fcc orientation=atom height_angstrom=2.4 lateral_jitter_index=0 lateral_jitter_dx_angstrom=0.0 lateral_jitter_dy_angstrom=0.0 structure_id=bc472e2fe8107ced pbc="T T T"
Mg       0.00000000       0.00000000      14.00000000  F        3
Mg       3.21000000       0.00000000      14.00000000  F        3
Mg       6.42000000       0.00000000      14.00000000  F        3
Mg       1.60500000       2.77994155      14.00000000  F        3
Mg       4.81500000       2.77994155      14.00000000  F        3
Mg       8.02500000       2.77994155      14.00000000  F        3
Mg       3.21000000       5.55988309      14.00000000  F        3
Mg       6.42000000       5.55988309      14.00000000  F        3
Mg       9.63000000       5.55988309      14.00000000  F        3
Mg      -0.00000000       1.85329436      16.60652000  T        2
Mg       3.21000000       1.85329436      16.60652000  T        2
Mg       6.42000000       1.85329436      16.60652000  T        2
Mg       1.60500000       4.63323591      16.60652000  T        2
Mg       4.81500000       4.63323591      16.60652000  T        2
Mg       8.02500000       4.63323591      16.60652000  T        2
Mg       3.21000000       7.41317746      16.60652000  T        2
Mg       6.42000000       7.41317746      16.60652000  T        2
Mg       9.63000000       7.41317746      16.60652000  T        2
Mg       0.00000000       0.00000000      19.21304000  T        1
Mg       3.21000000       0.00000000      19.21304000  T        1
Mg       6.42000000       0.00000000      19.21304000  T        1
Mg       1.60500000       2.77994155      19.21304000  T        1
Mg       4.81500000       2.77994155      19.21304000  T        1
Mg       8.02500000       2.77994155      19.21304000  T        1
Mg       3.21000000       5.55988309      19.21304000  T        1
Mg       6.42000000       5.55988309      19.21304000  T        1
Mg       9.63000000       5.55988309      19.21304000  T        1
O        3.74500000       4.63323591      21.61304000  T        0
28
Lattice="9.629999999999999 0.0 0.0 4.8149999999999995 8.339824638444142 0.0 0.0 0.0 33.21303999999999" Properties=species:S:1:pos:R:3:move_mask:L:1:tags:I:1 surface_element=Mg miller="0 0 0 1" slab_size="3 3 3" vacuum_angstrom=14.0 fixed_layers=1 fixed_atom_indices="0 1 2 3 4 5 6 7 8" system_name=mg0001_o_pilot_jitter adsorbate=O site=fcc orientation=atom height_angstrom=2.4 lateral_jitter_index=1 lateral_jitter_dx_angstrom=0.25 lateral_jitter_dy_angstrom=0.0 structure_id=9a7283fc61f1d6da pbc="T T T"
Mg       0.00000000       0.00000000      14.00000000  F        3
Mg       3.21000000       0.00000000      14.00000000  F        3
Mg       6.42000000       0.00000000      14.00000000  F        3
Mg       1.60500000       2.77994155      14.00000000  F        3
Mg       4.81500000       2.77994155      14.00000000  F        3
Mg       8.02500000       2.77994155      14.00000000  F        3
Mg       3.21000000       5.55988309      14.00000000  F        3
Mg       6.42000000       5.55988309      14.00000000  F        3
Mg       9.63000000       5.55988309      14.00000000  F        3
Mg      -0.00000000       1.85329436      16.60652000  T        2
Mg       3.21000000       1.85329436      16.60652000  T        2
Mg       6.42000000       1.85329436      16.60652000  T        2
Mg       1.60500000       4.63323591      16.60652000  T        2
Mg       4.81500000       4.63323591      16.60652000  T        2
Mg       8.02500000       4.63323591      16.60652000  T        2
Mg       3.21000000       7.41317746      16.60652000  T        2
Mg       6.42000000       7.41317746      16.60652000  T        2
Mg       9.63000000       7.41317746      16.60652000  T        2
Mg       0.00000000       0.00000000      19.21304000  T        1
Mg       3.21000000       0.00000000      19.21304000  T        1
Mg       6.42000000       0.00000000      19.21304000  T        1
Mg       1.60500000       2.77994155      19.21304000  T        1
Mg       4.81500000       2.77994155      19.21304000  T        1
Mg       8.02500000       2.77994155      19.21304000  T        1
Mg       3.21000000       5.55988309      19.21304000  T        1
Mg       6.42000000       5.55988309      19.21304000  T        1
Mg       9.63000000       5.55988309      19.21304000  T        1
O        5.06500000       0.92664718      21.61304000  T        0
28
Lattice="9.629999999999999 0.0 0.0 4.8149999999999995 8.339824638444142 0.0 0.0 0.0 33.21303999999999" Properties=species:S:1:pos:R:3:move_mask:L:1:tags:I:1 surface_element=Mg miller="0 0 0 1" slab_size="3 3 3" vacuum_angstrom=14.0 fixed_layers=1 fixed_atom_indices="0 1 2 3 4 5 6 7 8" system_name=mg0001_o_pilot_jitter adsorbate=O site=fcc orientation=atom height_angstrom=2.4 lateral_jitter_index=2 lateral_jitter_dx_angstrom=-0.25 lateral_jitter_dy_angstrom=0.0 structure_id=f36b1bcd35c8bdf9 pbc="T T T"
Mg       0.00000000       0.00000000      14.00000000  F        3
Mg       3.21000000       0.00000000      14.00000000  F        3
Mg       6.42000000       0.00000000      14.00000000  F        3
Mg       1.60500000       2.77994155      14.00000000  F        3
Mg       4.81500000       2.77994155      14.00000000  F        3
Mg       8.02500000       2.77994155      14.00000000  F        3
Mg       3.21000000       5.55988309      14.00000000  F        3
Mg       6.42000000       5.55988309      14.00000000  F        3
Mg       9.63000000       5.55988309      14.00000000  F        3
Mg      -0.00000000       1.85329436      16.60652000  T        2
Mg       3.21000000       1.85329436      16.60652000  T        2
Mg       6.42000000       1.85329436      16.60652000  T        2
Mg       1.60500000       4.63323591      16.60652000  T        2
Mg       4.81500000       4.63323591      16.60652000  T        2
Mg       8.02500000       4.63323591      16.60652000  T        2
Mg       3.21000000       7.41317746      16.60652000  T        2
Mg       6.42000000       7.41317746      16.60652000  T        2
Mg       9.63000000       7.41317746      16.60652000  T        2
Mg       0.00000000       0.00000000      19.21304000  T        1
Mg       3.21000000       0.00000000      19.21304000  T        1
Mg       6.42000000       0.00000000      19.21304000  T        1
Mg       1.60500000       2.77994155      19.21304000  T        1
Mg       4.81500000       2.77994155      19.21304000  T        1
Mg       8.02500000       2.77994155      19.21304000  T        1
Mg       3.21000000       5.55988309      19.21304000  T        1
Mg       6.42000000       5.55988309      19.21304000  T        1
Mg       9.63000000       5.55988309      19.21304000  T        1
O        4.56500000       0.92664718      21.61304000  T        0
28
Lattice="9.629999999999999 0.0 0.0 4.8149999999999995 8.339824638444142 0.0 0.0 0.0 33.21303999999999" Properties=species:S:1:pos:R:3:move_mask:L:1:tags:I:1 surface_element=Mg miller="0 0 0 1" slab_size="3 3 3" vacuum_angstrom=14.0 fixed_layers=1 fixed_atom_indices="0 1 2 3 4 5 6 7 8" system_name=mg0001_o_pilot_jitter adsorbate=O site=fcc orientation=atom height_angstrom=2.4 lateral_jitter_index=3 lateral_jitter_dx_angstrom=0.0 lateral_jitter_dy_angstrom=0.25 structure_id=b3cb5f0906f9a78d pbc="T T T"
Mg       0.00000000       0.00000000      14.00000000  F        3
Mg       3.21000000       0.00000000      14.00000000  F        3
Mg       6.42000000       0.00000000      14.00000000  F        3
Mg       1.60500000       2.77994155      14.00000000  F        3
Mg       4.81500000       2.77994155      14.00000000  F        3
Mg       8.02500000       2.77994155      14.00000000  F        3
Mg       3.21000000       5.55988309      14.00000000  F        3
Mg       6.42000000       5.55988309      14.00000000  F        3
Mg       9.63000000       5.55988309      14.00000000  F        3
Mg      -0.00000000       1.85329436      16.60652000  T        2
Mg       3.21000000       1.85329436      16.60652000  T        2
Mg       6.42000000       1.85329436      16.60652000  T        2
Mg       1.60500000       4.63323591      16.60652000  T        2
Mg       4.81500000       4.63323591      16.60652000  T        2
Mg       8.02500000       4.63323591      16.60652000  T        2
Mg       3.21000000       7.41317746      16.60652000  T        2
Mg       6.42000000       7.41317746      16.60652000  T        2
Mg       9.63000000       7.41317746      16.60652000  T        2
Mg       0.00000000       0.00000000      19.21304000  T        1
Mg       3.21000000       0.00000000      19.21304000  T        1
Mg       6.42000000       0.00000000      19.21304000  T        1
Mg       1.60500000       2.77994155      19.21304000  T        1
Mg       4.81500000       2.77994155      19.21304000  T        1
Mg       8.02500000       2.77994155      19.21304000  T        1
Mg       3.21000000       5.55988309      19.21304000  T        1
Mg       6.42000000       5.55988309      19.21304000  T        1
Mg       9.63000000       5.55988309      19.21304000  T        1
O        4.81500000       1.17664718      21.61304000  T        0
28
Lattice="9.629999999999999 0.0 0.0 4.8149999999999995 8.339824638444142 0.0 0.0 0.0 33.21303999999999" Properties=species:S:1:pos:R:3:move_mask:L:1:tags:I:1 surface_element=Mg miller="0 0 0 1" slab_size="3 3 3" vacuum_angstrom=14.0 fixed_layers=1 fixed_atom_indices="0 1 2 3 4 5 6 7 8" system_name=mg0001_o_pilot_jitter adsorbate=O site=fcc orientation=atom height_angstrom=2.4 lateral_jitter_index=4 lateral_jitter_dx_angstrom=0.0 lateral_jitter_dy_angstrom=-0.25 structure_id=e83ef44dd4753136 pbc="T T T"
Mg       0.00000000       0.00000000      14.00000000  F        3
Mg       3.21000000       0.00000000      14.00000000  F        3
Mg       6.42000000       0.00000000      14.00000000  F        3
Mg       1.60500000       2.77994155      14.00000000  F        3
Mg       4.81500000       2.77994155      14.00000000  F        3
Mg       8.02500000       2.77994155      14.00000000  F        3
Mg       3.21000000       5.55988309      14.00000000  F        3
Mg       6.42000000       5.55988309      14.00000000  F        3
Mg       9.63000000       5.55988309      14.00000000  F        3
Mg      -0.00000000       1.85329436      16.60652000  T        2
Mg       3.21000000       1.85329436      16.60652000  T        2
Mg       6.42000000       1.85329436      16.60652000  T        2
Mg       1.60500000       4.63323591      16.60652000  T        2
Mg       4.81500000       4.63323591      16.60652000  T        2
Mg       8.02500000       4.63323591      16.60652000  T        2
Mg       3.21000000       7.41317746      16.60652000  T        2
Mg       6.42000000       7.41317746      16.60652000  T        2
Mg       9.63000000       7.41317746      16.60652000  T        2
Mg       0.00000000       0.00000000      19.21304000  T        1
Mg       3.21000000       0.00000000      19.21304000  T        1
Mg       6.42000000       0.00000000      19.21304000  T        1
Mg       1.60500000       2.77994155      19.21304000  T        1
Mg       4.81500000       2.77994155      19.21304000  T        1
Mg       8.02500000       2.77994155      19.21304000  T        1
Mg       3.21000000       5.55988309      19.21304000  T        1
Mg       6.42000000       5.55988309      19.21304000  T        1
Mg       9.63000000       5.55988309      19.21304000  T        1
O        4.81500000       0.67664718      21.61304000  T        0
28
Lattice="9.629999999999999 0.0 0.0 4.8149999999999995 8.339824638444142 0.0 0.0 0.0 33.21303999999999" Properties=species:S:1:pos:R:3:move_mask:L:1:tags:I:1 surface_element=Mg miller="0 0 0 1" slab_size="3 3 3" vacuum_angstrom=14.0 fixed_layers=1 fixed_atom_indices="0 1 2 3 4 5 6 7 8" system_name=mg0001_o_pilot_jitter adsorbate=O site=hcp orientation=atom height_angstrom=1.6 lateral_jitter_index=0 lateral_jitter_dx_angstrom=0.0 lateral_jitter_dy_angstrom=0.0 structure_id=afd702356ccefc8a pbc="T T T"
Mg       0.00000000       0.00000000      14.00000000  F        3
Mg       3.21000000       0.00000000      14.00000000  F        3
Mg       6.42000000       0.00000000      14.00000000  F        3
Mg       1.60500000       2.77994155      14.00000000  F        3
Mg       4.81500000       2.77994155      14.00000000  F        3
Mg       8.02500000       2.77994155      14.00000000  F        3
Mg       3.21000000       5.55988309      14.00000000  F        3
Mg       6.42000000       5.55988309      14.00000000  F        3
Mg       9.63000000       5.55988309      14.00000000  F        3
Mg      -0.00000000       1.85329436      16.60652000  T        2
Mg       3.21000000       1.85329436      16.60652000  T        2
Mg       6.42000000       1.85329436      16.60652000  T        2
Mg       1.60500000       4.63323591      16.60652000  T        2
Mg       4.81500000       4.63323591      16.60652000  T        2
Mg       8.02500000       4.63323591      16.60652000  T        2
Mg       3.21000000       7.41317746      16.60652000  T        2
Mg       6.42000000       7.41317746      16.60652000  T        2
Mg       9.63000000       7.41317746      16.60652000  T        2
Mg       0.00000000       0.00000000      19.21304000  T        1
Mg       3.21000000       0.00000000      19.21304000  T        1
Mg       6.42000000       0.00000000      19.21304000  T        1
Mg       1.60500000       2.77994155      19.21304000  T        1
Mg       4.81500000       2.77994155      19.21304000  T        1
Mg       8.02500000       2.77994155      19.21304000  T        1
Mg       3.21000000       5.55988309      19.21304000  T        1
Mg       6.42000000       5.55988309      19.21304000  T        1
Mg       9.63000000       5.55988309      19.21304000  T        1
O        5.88500000       4.63323591      20.81304000  T        0
28
Lattice="9.629999999999999 0.0 0.0 4.8149999999999995 8.339824638444142 0.0 0.0 0.0 33.21303999999999" Properties=species:S:1:pos:R:3:move_mask:L:1:tags:I:1 surface_element=Mg miller="0 0 0 1" slab_size="3 3 3" vacuum_angstrom=14.0 fixed_layers=1 fixed_atom_indices="0 1 2 3 4 5 6 7 8" system_name=mg0001_o_pilot_jitter adsorbate=O site=hcp orientation=atom height_angstrom=1.6 lateral_jitter_index=1 lateral_jitter_dx_angstrom=0.25 lateral_jitter_dy_angstrom=0.0 structure_id=4cf5b8c3ac8467eb pbc="T T T"
Mg       0.00000000       0.00000000      14.00000000  F        3
Mg       3.21000000       0.00000000      14.00000000  F        3
Mg       6.42000000       0.00000000      14.00000000  F        3
Mg       1.60500000       2.77994155      14.00000000  F        3
Mg       4.81500000       2.77994155      14.00000000  F        3
Mg       8.02500000       2.77994155      14.00000000  F        3
Mg       3.21000000       5.55988309      14.00000000  F        3
Mg       6.42000000       5.55988309      14.00000000  F        3
Mg       9.63000000       5.55988309      14.00000000  F        3
Mg      -0.00000000       1.85329436      16.60652000  T        2
Mg       3.21000000       1.85329436      16.60652000  T        2
Mg       6.42000000       1.85329436      16.60652000  T        2
Mg       1.60500000       4.63323591      16.60652000  T        2
Mg       4.81500000       4.63323591      16.60652000  T        2
Mg       8.02500000       4.63323591      16.60652000  T        2
Mg       3.21000000       7.41317746      16.60652000  T        2
Mg       6.42000000       7.41317746      16.60652000  T        2
Mg       9.63000000       7.41317746      16.60652000  T        2
Mg       0.00000000       0.00000000      19.21304000  T        1
Mg       3.21000000       0.00000000      19.21304000  T        1
Mg       6.42000000       0.00000000      19.21304000  T        1
Mg       1.60500000       2.77994155      19.21304000  T        1
Mg       4.81500000       2.77994155      19.21304000  T        1
Mg       8.02500000       2.77994155      19.21304000  T        1
Mg       3.21000000       5.55988309      19.21304000  T        1
Mg       6.42000000       5.55988309      19.21304000  T        1
Mg       9.63000000       5.55988309      19.21304000  T        1
O        6.13500000       0.92664718      20.81304000  T        0
28
Lattice="9.629999999999999 0.0 0.0 4.8149999999999995 8.339824638444142 0.0 0.0 0.0 33.21303999999999" Properties=species:S:1:pos:R:3:move_mask:L:1:tags:I:1 surface_element=Mg miller="0 0 0 1" slab_size="3 3 3" vacuum_angstrom=14.0 fixed_layers=1 fixed_atom_indices="0 1 2 3 4 5 6 7 8" system_name=mg0001_o_pilot_jitter adsorbate=O site=hcp orientation=atom height_angstrom=1.6 lateral_jitter_index=2 lateral_jitter_dx_angstrom=-0.25 lateral_jitter_dy_angstrom=0.0 structure_id=4bd57406820d9208 pbc="T T T"
Mg       0.00000000       0.00000000      14.00000000  F        3
Mg       3.21000000       0.00000000      14.00000000  F        3
Mg       6.42000000       0.00000000      14.00000000  F        3
Mg       1.60500000       2.77994155      14.00000000  F        3
Mg       4.81500000       2.77994155      14.00000000  F        3
Mg       8.02500000       2.77994155      14.00000000  F        3
Mg       3.21000000       5.55988309      14.00000000  F        3
Mg       6.42000000       5.55988309      14.00000000  F        3
Mg       9.63000000       5.55988309      14.00000000  F        3
Mg      -0.00000000       1.85329436      16.60652000  T        2
Mg       3.21000000       1.85329436      16.60652000  T        2
Mg       6.42000000       1.85329436      16.60652000  T        2
Mg       1.60500000       4.63323591      16.60652000  T        2
Mg       4.81500000       4.63323591      16.60652000  T        2
Mg       8.02500000       4.63323591      16.60652000  T        2
Mg       3.21000000       7.41317746      16.60652000  T        2
Mg       6.42000000       7.41317746      16.60652000  T        2
Mg       9.63000000       7.41317746      16.60652000  T        2
Mg       0.00000000       0.00000000      19.21304000  T        1
Mg       3.21000000       0.00000000      19.21304000  T        1
Mg       6.42000000       0.00000000      19.21304000  T        1
Mg       1.60500000       2.77994155      19.21304000  T        1
Mg       4.81500000       2.77994155      19.21304000  T        1
Mg       8.02500000       2.77994155      19.21304000  T        1
Mg       3.21000000       5.55988309      19.21304000  T        1
Mg       6.42000000       5.55988309      19.21304000  T        1
Mg       9.63000000       5.55988309      19.21304000  T        1
O        5.63500000       0.92664718      20.81304000  T        0
28
Lattice="9.629999999999999 0.0 0.0 4.8149999999999995 8.339824638444142 0.0 0.0 0.0 33.21303999999999" Properties=species:S:1:pos:R:3:move_mask:L:1:tags:I:1 surface_element=Mg miller="0 0 0 1" slab_size="3 3 3" vacuum_angstrom=14.0 fixed_layers=1 fixed_atom_indices="0 1 2 3 4 5 6 7 8" system_name=mg0001_o_pilot_jitter adsorbate=O site=hcp orientation=atom height_angstrom=1.6 lateral_jitter_index=3 lateral_jitter_dx_angstrom=0.0 lateral_jitter_dy_angstrom=0.25 structure_id=d07f1ec4a9494277 pbc="T T T"
Mg       0.00000000       0.00000000      14.00000000  F        3
Mg       3.21000000       0.00000000      14.00000000  F        3
Mg       6.42000000       0.00000000      14.00000000  F        3
Mg       1.60500000       2.77994155      14.00000000  F        3
Mg       4.81500000       2.77994155      14.00000000  F        3
Mg       8.02500000       2.77994155      14.00000000  F        3
Mg       3.21000000       5.55988309      14.00000000  F        3
Mg       6.42000000       5.55988309      14.00000000  F        3
Mg       9.63000000       5.55988309      14.00000000  F        3
Mg      -0.00000000       1.85329436      16.60652000  T        2
Mg       3.21000000       1.85329436      16.60652000  T        2
Mg       6.42000000       1.85329436      16.60652000  T        2
Mg       1.60500000       4.63323591      16.60652000  T        2
Mg       4.81500000       4.63323591      16.60652000  T        2
Mg       8.02500000       4.63323591      16.60652000  T        2
Mg       3.21000000       7.41317746      16.60652000  T        2
Mg       6.42000000       7.41317746      16.60652000  T        2
Mg       9.63000000       7.41317746      16.60652000  T        2
Mg       0.00000000       0.00000000      19.21304000  T        1
Mg       3.21000000       0.00000000      19.21304000  T        1
Mg       6.42000000       0.00000000      19.21304000  T        1
Mg       1.60500000       2.77994155      19.21304000  T        1
Mg       4.81500000       2.77994155      19.21304000  T        1
Mg       8.02500000       2.77994155      19.21304000  T        1
Mg       3.21000000       5.55988309      19.21304000  T        1
Mg       6.42000000       5.55988309      19.21304000  T        1
Mg       9.63000000       5.55988309      19.21304000  T        1
O        5.88500000       1.17664718      20.81304000  T        0
28
Lattice="9.629999999999999 0.0 0.0 4.8149999999999995 8.339824638444142 0.0 0.0 0.0 33.21303999999999" Properties=species:S:1:pos:R:3:move_mask:L:1:tags:I:1 surface_element=Mg miller="0 0 0 1" slab_size="3 3 3" vacuum_angstrom=14.0 fixed_layers=1 fixed_atom_indices="0 1 2 3 4 5 6 7 8" system_name=mg0001_o_pilot_jitter adsorbate=O site=hcp orientation=atom height_angstrom=1.6 lateral_jitter_index=4 lateral_jitter_dx_angstrom=0.0 lateral_jitter_dy_angstrom=-0.25 structure_id=888219e924ca87f2 pbc="T T T"
Mg       0.00000000       0.00000000      14.00000000  F        3
Mg       3.21000000       0.00000000      14.00000000  F        3
Mg       6.42000000       0.00000000      14.00000000  F        3
Mg       1.60500000       2.77994155      14.00000000  F        3
Mg       4.81500000       2.77994155      14.00000000  F        3
Mg       8.02500000       2.77994155      14.00000000  F        3
Mg       3.21000000       5.55988309      14.00000000  F        3
Mg       6.42000000       5.55988309      14.00000000  F        3
Mg       9.63000000       5.55988309      14.00000000  F        3
Mg      -0.00000000       1.85329436      16.60652000  T        2
Mg       3.21000000       1.85329436      16.60652000  T        2
Mg       6.42000000       1.85329436      16.60652000  T        2
Mg       1.60500000       4.63323591      16.60652000  T        2
Mg       4.81500000       4.63323591      16.60652000  T        2
Mg       8.02500000       4.63323591      16.60652000  T        2
Mg       3.21000000       7.41317746      16.60652000  T        2
Mg       6.42000000       7.41317746      16.60652000  T        2
Mg       9.63000000       7.41317746      16.60652000  T        2
Mg       0.00000000       0.00000000      19.21304000  T        1
Mg       3.21000000       0.00000000      19.21304000  T        1
Mg       6.42000000       0.00000000      19.21304000  T        1
Mg       1.60500000       2.77994155      19.21304000  T        1
Mg       4.81500000       2.77994155      19.21304000  T        1
Mg       8.02500000       2.77994155      19.21304000  T        1
Mg       3.21000000       5.55988309      19.21304000  T        1
Mg       6.42000000       5.55988309      19.21304000  T        1
Mg       9.63000000       5.55988309      19.21304000  T        1
O        5.88500000       0.67664718      20.81304000  T        0
28
Lattice="9.629999999999999 0.0 0.0 4.8149999999999995 8.339824638444142 0.0 0.0 0.0 33.21303999999999" Properties=species:S:1:pos:R:3:move_mask:L:1:tags:I:1 surface_element=Mg miller="0 0 0 1" slab_size="3 3 3" vacuum_angstrom=14.0 fixed_layers=1 fixed_atom_indices="0 1 2 3 4 5 6 7 8" system_name=mg0001_o_pilot_jitter adsorbate=O site=hcp orientation=atom height_angstrom=2.0 lateral_jitter_index=0 lateral_jitter_dx_angstrom=0.0 lateral_jitter_dy_angstrom=0.0 structure_id=61592c9ce5acb3bd pbc="T T T"
Mg       0.00000000       0.00000000      14.00000000  F        3
Mg       3.21000000       0.00000000      14.00000000  F        3
Mg       6.42000000       0.00000000      14.00000000  F        3
Mg       1.60500000       2.77994155      14.00000000  F        3
Mg       4.81500000       2.77994155      14.00000000  F        3
Mg       8.02500000       2.77994155      14.00000000  F        3
Mg       3.21000000       5.55988309      14.00000000  F        3
Mg       6.42000000       5.55988309      14.00000000  F        3
Mg       9.63000000       5.55988309      14.00000000  F        3
Mg      -0.00000000       1.85329436      16.60652000  T        2
Mg       3.21000000       1.85329436      16.60652000  T        2
Mg       6.42000000       1.85329436      16.60652000  T        2
Mg       1.60500000       4.63323591      16.60652000  T        2
Mg       4.81500000       4.63323591      16.60652000  T        2
Mg       8.02500000       4.63323591      16.60652000  T        2
Mg       3.21000000       7.41317746      16.60652000  T        2
Mg       6.42000000       7.41317746      16.60652000  T        2
Mg       9.63000000       7.41317746      16.60652000  T        2
Mg       0.00000000       0.00000000      19.21304000  T        1
Mg       3.21000000       0.00000000      19.21304000  T        1
Mg       6.42000000       0.00000000      19.21304000  T        1
Mg       1.60500000       2.77994155      19.21304000  T        1
Mg       4.81500000       2.77994155      19.21304000  T        1
Mg       8.02500000       2.77994155      19.21304000  T        1
Mg       3.21000000       5.55988309      19.21304000  T        1
Mg       6.42000000       5.55988309      19.21304000  T        1
Mg       9.63000000       5.55988309      19.21304000  T        1
O        5.88500000       4.63323591      21.21304000  T        0
28
Lattice="9.629999999999999 0.0 0.0 4.8149999999999995 8.339824638444142 0.0 0.0 0.0 33.21303999999999" Properties=species:S:1:pos:R:3:move_mask:L:1:tags:I:1 surface_element=Mg miller="0 0 0 1" slab_size="3 3 3" vacuum_angstrom=14.0 fixed_layers=1 fixed_atom_indices="0 1 2 3 4 5 6 7 8" system_name=mg0001_o_pilot_jitter adsorbate=O site=hcp orientation=atom height_angstrom=2.0 lateral_jitter_index=1 lateral_jitter_dx_angstrom=0.25 lateral_jitter_dy_angstrom=0.0 structure_id=54b710a6fadb6bb5 pbc="T T T"
Mg       0.00000000       0.00000000      14.00000000  F        3
Mg       3.21000000       0.00000000      14.00000000  F        3
Mg       6.42000000       0.00000000      14.00000000  F        3
Mg       1.60500000       2.77994155      14.00000000  F        3
Mg       4.81500000       2.77994155      14.00000000  F        3
Mg       8.02500000       2.77994155      14.00000000  F        3
Mg       3.21000000       5.55988309      14.00000000  F        3
Mg       6.42000000       5.55988309      14.00000000  F        3
Mg       9.63000000       5.55988309      14.00000000  F        3
Mg      -0.00000000       1.85329436      16.60652000  T        2
Mg       3.21000000       1.85329436      16.60652000  T        2
Mg       6.42000000       1.85329436      16.60652000  T        2
Mg       1.60500000       4.63323591      16.60652000  T        2
Mg       4.81500000       4.63323591      16.60652000  T        2
Mg       8.02500000       4.63323591      16.60652000  T        2
Mg       3.21000000       7.41317746      16.60652000  T        2
Mg       6.42000000       7.41317746      16.60652000  T        2
Mg       9.63000000       7.41317746      16.60652000  T        2
Mg       0.00000000       0.00000000      19.21304000  T        1
Mg       3.21000000       0.00000000      19.21304000  T        1
Mg       6.42000000       0.00000000      19.21304000  T        1
Mg       1.60500000       2.77994155      19.21304000  T        1
Mg       4.81500000       2.77994155      19.21304000  T        1
Mg       8.02500000       2.77994155      19.21304000  T        1
Mg       3.21000000       5.55988309      19.21304000  T        1
Mg       6.42000000       5.55988309      19.21304000  T        1
Mg       9.63000000       5.55988309      19.21304000  T        1
O        6.13500000       0.92664718      21.21304000  T        0
28
Lattice="9.629999999999999 0.0 0.0 4.8149999999999995 8.339824638444142 0.0 0.0 0.0 33.21303999999999" Properties=species:S:1:pos:R:3:move_mask:L:1:tags:I:1 surface_element=Mg miller="0 0 0 1" slab_size="3 3 3" vacuum_angstrom=14.0 fixed_layers=1 fixed_atom_indices="0 1 2 3 4 5 6 7 8" system_name=mg0001_o_pilot_jitter adsorbate=O site=hcp orientation=atom height_angstrom=2.0 lateral_jitter_index=2 lateral_jitter_dx_angstrom=-0.25 lateral_jitter_dy_angstrom=0.0 structure_id=79918021a8153bc5 pbc="T T T"
Mg       0.00000000       0.00000000      14.00000000  F        3
Mg       3.21000000       0.00000000      14.00000000  F        3
Mg       6.42000000       0.00000000      14.00000000  F        3
Mg       1.60500000       2.77994155      14.00000000  F        3
Mg       4.81500000       2.77994155      14.00000000  F        3
Mg       8.02500000       2.77994155      14.00000000  F        3
Mg       3.21000000       5.55988309      14.00000000  F        3
Mg       6.42000000       5.55988309      14.00000000  F        3
Mg       9.63000000       5.55988309      14.00000000  F        3
Mg      -0.00000000       1.85329436      16.60652000  T        2
Mg       3.21000000       1.85329436      16.60652000  T        2
Mg       6.42000000       1.85329436      16.60652000  T        2
Mg       1.60500000       4.63323591      16.60652000  T        2
Mg       4.81500000       4.63323591      16.60652000  T        2
Mg       8.02500000       4.63323591      16.60652000  T        2
Mg       3.21000000       7.41317746      16.60652000  T        2
Mg       6.42000000       7.41317746      16.60652000  T        2
Mg       9.63000000       7.41317746      16.60652000  T        2
Mg       0.00000000       0.00000000      19.21304000  T        1
Mg       3.21000000       0.00000000      19.21304000  T        1
Mg       6.42000000       0.00000000      19.21304000  T        1
Mg       1.60500000       2.77994155      19.21304000  T        1
Mg       4.81500000       2.77994155      19.21304000  T        1
Mg       8.02500000       2.77994155      19.21304000  T        1
Mg       3.21000000       5.55988309      19.21304000  T        1
Mg       6.42000000       5.55988309      19.21304000  T        1
Mg       9.63000000       5.55988309      19.21304000  T        1
O        5.63500000       0.92664718      21.21304000  T        0
28
Lattice="9.629999999999999 0.0 0.0 4.8149999999999995 8.339824638444142 0.0 0.0 0.0 33.21303999999999" Properties=species:S:1:pos:R:3:move_mask:L:1:tags:I:1 surface_element=Mg miller="0 0 0 1" slab_size="3 3 3" vacuum_angstrom=14.0 fixed_layers=1 fixed_atom_indices="0 1 2 3 4 5 6 7 8" system_name=mg0001_o_pilot_jitter adsorbate=O site=hcp orientation=atom height_angstrom=2.0 lateral_jitter_index=3 lateral_jitter_dx_angstrom=0.0 lateral_jitter_dy_angstrom=0.25 structure_id=edeabe8388606624 pbc="T T T"
Mg       0.00000000       0.00000000      14.00000000  F        3
Mg       3.21000000       0.00000000      14.00000000  F        3
Mg       6.42000000       0.00000000      14.00000000  F        3
Mg       1.60500000       2.77994155      14.00000000  F        3
Mg       4.81500000       2.77994155      14.00000000  F        3
Mg       8.02500000       2.77994155      14.00000000  F        3
Mg       3.21000000       5.55988309      14.00000000  F        3
Mg       6.42000000       5.55988309      14.00000000  F        3
Mg       9.63000000       5.55988309      14.00000000  F        3
Mg      -0.00000000       1.85329436      16.60652000  T        2
Mg       3.21000000       1.85329436      16.60652000  T        2
Mg       6.42000000       1.85329436      16.60652000  T        2
Mg       1.60500000       4.63323591      16.60652000  T        2
Mg       4.81500000       4.63323591      16.60652000  T        2
Mg       8.02500000       4.63323591      16.60652000  T        2
Mg       3.21000000       7.41317746      16.60652000  T        2
Mg       6.42000000       7.41317746      16.60652000  T        2
Mg       9.63000000       7.41317746      16.60652000  T        2
Mg       0.00000000       0.00000000      19.21304000  T        1
Mg       3.21000000       0.00000000      19.21304000  T        1
Mg       6.42000000       0.00000000      19.21304000  T        1
Mg       1.60500000       2.77994155      19.21304000  T        1
Mg       4.81500000       2.77994155      19.21304000  T        1
Mg       8.02500000       2.77994155      19.21304000  T        1
Mg       3.21000000       5.55988309      19.21304000  T        1
Mg       6.42000000       5.55988309      19.21304000  T        1
Mg       9.63000000       5.55988309      19.21304000  T        1
O        5.88500000       1.17664718      21.21304000  T        0
28
Lattice="9.629999999999999 0.0 0.0 4.8149999999999995 8.339824638444142 0.0 0.0 0.0 33.21303999999999" Properties=species:S:1:pos:R:3:move_mask:L:1:tags:I:1 surface_element=Mg miller="0 0 0 1" slab_size="3 3 3" vacuum_angstrom=14.0 fixed_layers=1 fixed_atom_indices="0 1 2 3 4 5 6 7 8" system_name=mg0001_o_pilot_jitter adsorbate=O site=hcp orientation=atom height_angstrom=2.0 lateral_jitter_index=4 lateral_jitter_dx_angstrom=0.0 lateral_jitter_dy_angstrom=-0.25 structure_id=22438c289ddb70f3 pbc="T T T"
Mg       0.00000000       0.00000000      14.00000000  F        3
Mg       3.21000000       0.00000000      14.00000000  F        3
Mg       6.42000000       0.00000000      14.00000000  F        3
Mg       1.60500000       2.77994155      14.00000000  F        3
Mg       4.81500000       2.77994155      14.00000000  F        3
Mg       8.02500000       2.77994155      14.00000000  F        3
Mg       3.21000000       5.55988309      14.00000000  F        3
Mg       6.42000000       5.55988309      14.00000000  F        3
Mg       9.63000000       5.55988309      14.00000000  F        3
Mg      -0.00000000       1.85329436      16.60652000  T        2
Mg       3.21000000       1.85329436      16.60652000  T        2
Mg       6.42000000       1.85329436      16.60652000  T        2
Mg       1.60500000       4.63323591      16.60652000  T        2
Mg       4.81500000       4.63323591      16.60652000  T        2
Mg       8.02500000       4.63323591      16.60652000  T        2
Mg       3.21000000       7.41317746      16.60652000  T        2
Mg       6.42000000       7.41317746      16.60652000  T        2
Mg       9.63000000       7.41317746      16.60652000  T        2
Mg       0.00000000       0.00000000      19.21304000  T        1
Mg       3.21000000       0.00000000      19.21304000  T        1
Mg       6.42000000       0.00000000      19.21304000  T        1
Mg       1.60500000       2.77994155      19.21304000  T        1
Mg       4.81500000       2.77994155      19.21304000  T        1
Mg       8.02500000       2.77994155      19.21304000  T        1
Mg       3.21000000       5.55988309      19.21304000  T        1
Mg       6.42000000       5.55988309      19.21304000  T        1
Mg       9.63000000       5.55988309      19.21304000  T        1
O        5.88500000       0.67664718      21.21304000  T        0
28
Lattice="9.629999999999999 0.0 0.0 4.8149999999999995 8.339824638444142 0.0 0.0 0.0 33.21303999999999" Properties=species:S:1:pos:R:3:move_mask:L:1:tags:I:1 surface_element=Mg miller="0 0 0 1" slab_size="3 3 3" vacuum_angstrom=14.0 fixed_layers=1 fixed_atom_indices="0 1 2 3 4 5 6 7 8" system_name=mg0001_o_pilot_jitter adsorbate=O site=hcp orientation=atom height_angstrom=2.4 lateral_jitter_index=0 lateral_jitter_dx_angstrom=0.0 lateral_jitter_dy_angstrom=0.0 structure_id=122e3255b247ee60 pbc="T T T"
Mg       0.00000000       0.00000000      14.00000000  F        3
Mg       3.21000000       0.00000000      14.00000000  F        3
Mg       6.42000000       0.00000000      14.00000000  F        3
Mg       1.60500000       2.77994155      14.00000000  F        3
Mg       4.81500000       2.77994155      14.00000000  F        3
Mg       8.02500000       2.77994155      14.00000000  F        3
Mg       3.21000000       5.55988309      14.00000000  F        3
Mg       6.42000000       5.55988309      14.00000000  F        3
Mg       9.63000000       5.55988309      14.00000000  F        3
Mg      -0.00000000       1.85329436      16.60652000  T        2
Mg       3.21000000       1.85329436      16.60652000  T        2
Mg       6.42000000       1.85329436      16.60652000  T        2
Mg       1.60500000       4.63323591      16.60652000  T        2
Mg       4.81500000       4.63323591      16.60652000  T        2
Mg       8.02500000       4.63323591      16.60652000  T        2
Mg       3.21000000       7.41317746      16.60652000  T        2
Mg       6.42000000       7.41317746      16.60652000  T        2
Mg       9.63000000       7.41317746      16.60652000  T        2
Mg       0.00000000       0.00000000      19.21304000  T        1
Mg       3.21000000       0.00000000      19.21304000  T        1
Mg       6.42000000       0.00000000      19.21304000  T        1
Mg       1.60500000       2.77994155      19.21304000  T        1
Mg       4.81500000       2.77994155      19.21304000  T        1
Mg       8.02500000       2.77994155      19.21304000  T        1
Mg       3.21000000       5.55988309      19.21304000  T        1
Mg       6.42000000       5.55988309      19.21304000  T        1
Mg       9.63000000       5.55988309      19.21304000  T        1
O        5.88500000       4.63323591      21.61304000  T        0
28
Lattice="9.629999999999999 0.0 0.0 4.8149999999999995 8.339824638444142 0.0 0.0 0.0 33.21303999999999" Properties=species:S:1:pos:R:3:move_mask:L:1:tags:I:1 surface_element=Mg miller="0 0 0 1" slab_size="3 3 3" vacuum_angstrom=14.0 fixed_layers=1 fixed_atom_indices="0 1 2 3 4 5 6 7 8" system_name=mg0001_o_pilot_jitter adsorbate=O site=hcp orientation=atom height_angstrom=2.4 lateral_jitter_index=1 lateral_jitter_dx_angstrom=0.25 lateral_jitter_dy_angstrom=0.0 structure_id=2d9196aa6d7e2257 pbc="T T T"
Mg       0.00000000       0.00000000      14.00000000  F        3
Mg       3.21000000       0.00000000      14.00000000  F        3
Mg       6.42000000       0.00000000      14.00000000  F        3
Mg       1.60500000       2.77994155      14.00000000  F        3
Mg       4.81500000       2.77994155      14.00000000  F        3
Mg       8.02500000       2.77994155      14.00000000  F        3
Mg       3.21000000       5.55988309      14.00000000  F        3
Mg       6.42000000       5.55988309      14.00000000  F        3
Mg       9.63000000       5.55988309      14.00000000  F        3
Mg      -0.00000000       1.85329436      16.60652000  T        2
Mg       3.21000000       1.85329436      16.60652000  T        2
Mg       6.42000000       1.85329436      16.60652000  T        2
Mg       1.60500000       4.63323591      16.60652000  T        2
Mg       4.81500000       4.63323591      16.60652000  T        2
Mg       8.02500000       4.63323591      16.60652000  T        2
Mg       3.21000000       7.41317746      16.60652000  T        2
Mg       6.42000000       7.41317746      16.60652000  T        2
Mg       9.63000000       7.41317746      16.60652000  T        2
Mg       0.00000000       0.00000000      19.21304000  T        1
Mg       3.21000000       0.00000000      19.21304000  T        1
Mg       6.42000000       0.00000000      19.21304000  T        1
Mg       1.60500000       2.77994155      19.21304000  T        1
Mg       4.81500000       2.77994155      19.21304000  T        1
Mg       8.02500000       2.77994155      19.21304000  T        1
Mg       3.21000000       5.55988309      19.21304000  T        1
Mg       6.42000000       5.55988309      19.21304000  T        1
Mg       9.63000000       5.55988309      19.21304000  T        1
O        6.13500000       0.92664718      21.61304000  T        0
28
Lattice="9.629999999999999 0.0 0.0 4.8149999999999995 8.339824638444142 0.0 0.0 0.0 33.21303999999999" Properties=species:S:1:pos:R:3:move_mask:L:1:tags:I:1 surface_element=Mg miller="0 0 0 1" slab_size="3 3 3" vacuum_angstrom=14.0 fixed_layers=1 fixed_atom_indices="0 1 2 3 4 5 6 7 8" system_name=mg0001_o_pilot_jitter adsorbate=O site=hcp orientation=atom height_angstrom=2.4 lateral_jitter_index=2 lateral_jitter_dx_angstrom=-0.25 lateral_jitter_dy_angstrom=0.0 structure_id=8656ded82956740a pbc="T T T"
Mg       0.00000000       0.00000000      14.00000000  F        3
Mg       3.21000000       0.00000000      14.00000000  F        3
Mg       6.42000000       0.00000000      14.00000000  F        3
Mg       1.60500000       2.77994155      14.00000000  F        3
Mg       4.81500000       2.77994155      14.00000000  F        3
Mg       8.02500000       2.77994155      14.00000000  F        3
Mg       3.21000000       5.55988309      14.00000000  F        3
Mg       6.42000000       5.55988309      14.00000000  F        3
Mg       9.63000000       5.55988309      14.00000000  F        3
Mg      -0.00000000       1.85329436      16.60652000  T        2
Mg       3.21000000       1.85329436      16.60652000  T        2
Mg       6.42000000       1.85329436      16.60652000  T        2
Mg       1.60500000       4.63323591      16.60652000  T        2
Mg       4.81500000       4.63323591      16.60652000  T        2
Mg       8.02500000       4.63323591      16.60652000  T        2
Mg       3.21000000       7.41317746      16.60652000  T        2
Mg       6.42000000       7.41317746      16.60652000  T        2
Mg       9.63000000       7.41317746      16.60652000  T        2
Mg       0.00000000       0.00000000      19.21304000  T        1
Mg       3.21000000       0.00000000      19.21304000  T        1
Mg       6.42000000       0.00000000      19.21304000  T        1
Mg       1.60500000       2.77994155      19.21304000  T        1
Mg       4.81500000       2.77994155      19.21304000  T        1
Mg       8.02500000       2.77994155      19.21304000  T        1
Mg       3.21000000       5.55988309      19.21304000  T        1
Mg       6.42000000       5.55988309      19.21304000  T        1
Mg       9.63000000       5.55988309      19.21304000  T        1
O        5.63500000       0.92664718      21.61304000  T        0
28
Lattice="9.629999999999999 0.0 0.0 4.8149999999999995 8.339824638444142 0.0 0.0 0.0 33.21303999999999" Properties=species:S:1:pos:R:3:move_mask:L:1:tags:I:1 surface_element=Mg miller="0 0 0 1" slab_size="3 3 3" vacuum_angstrom=14.0 fixed_layers=1 fixed_atom_indices="0 1 2 3 4 5 6 7 8" system_name=mg0001_o_pilot_jitter adsorbate=O site=hcp orientation=atom height_angstrom=2.4 lateral_jitter_index=3 lateral_jitter_dx_angstrom=0.0 lateral_jitter_dy_angstrom=0.25 structure_id=50d1156e52093374 pbc="T T T"
Mg       0.00000000       0.00000000      14.00000000  F        3
Mg       3.21000000       0.00000000      14.00000000  F        3
Mg       6.42000000       0.00000000      14.00000000  F        3
Mg       1.60500000       2.77994155      14.00000000  F        3
Mg       4.81500000       2.77994155      14.00000000  F        3
Mg       8.02500000       2.77994155      14.00000000  F        3
Mg       3.21000000       5.55988309      14.00000000  F        3
Mg       6.42000000       5.55988309      14.00000000  F        3
Mg       9.63000000       5.55988309      14.00000000  F        3
Mg      -0.00000000       1.85329436      16.60652000  T        2
Mg       3.21000000       1.85329436      16.60652000  T        2
Mg       6.42000000       1.85329436      16.60652000  T        2
Mg       1.60500000       4.63323591      16.60652000  T        2
Mg       4.81500000       4.63323591      16.60652000  T        2
Mg       8.02500000       4.63323591      16.60652000  T        2
Mg       3.21000000       7.41317746      16.60652000  T        2
Mg       6.42000000       7.41317746      16.60652000  T        2
Mg       9.63000000       7.41317746      16.60652000  T        2
Mg       0.00000000       0.00000000      19.21304000  T        1
Mg       3.21000000       0.00000000      19.21304000  T        1
Mg       6.42000000       0.00000000      19.21304000  T        1
Mg       1.60500000       2.77994155      19.21304000  T        1
Mg       4.81500000       2.77994155      19.21304000  T        1
Mg       8.02500000       2.77994155      19.21304000  T        1
Mg       3.21000000       5.55988309      19.21304000  T        1
Mg       6.42000000       5.55988309      19.21304000  T        1
Mg       9.63000000       5.55988309      19.21304000  T        1
O        5.88500000       1.17664718      21.61304000  T        0
28
Lattice="9.629999999999999 0.0 0.0 4.8149999999999995 8.339824638444142 0.0 0.0 0.0 33.21303999999999" Properties=species:S:1:pos:R:3:move_mask:L:1:tags:I:1 surface_element=Mg miller="0 0 0 1" slab_size="3 3 3" vacuum_angstrom=14.0 fixed_layers=1 fixed_atom_indices="0 1 2 3 4 5 6 7 8" system_name=mg0001_o_pilot_jitter adsorbate=O site=hcp orientation=atom height_angstrom=2.4 lateral_jitter_index=4 lateral_jitter_dx_angstrom=0.0 lateral_jitter_dy_angstrom=-0.25 structure_id=306ad89390cf1f45 pbc="T T T"
Mg       0.00000000       0.00000000      14.00000000  F        3
Mg       3.21000000       0.00000000      14.00000000  F        3
Mg       6.42000000       0.00000000      14.00000000  F        3
Mg       1.60500000       2.77994155      14.00000000  F        3
Mg       4.81500000       2.77994155      14.00000000  F        3
Mg       8.02500000       2.77994155      14.00000000  F        3
Mg       3.21000000       5.55988309      14.00000000  F        3
Mg       6.42000000       5.55988309      14.00000000  F        3
Mg       9.63000000       5.55988309      14.00000000  F        3
Mg      -0.00000000       1.85329436      16.60652000  T        2
Mg       3.21000000       1.85329436      16.60652000  T        2
Mg       6.42000000       1.85329436      16.60652000  T        2
Mg       1.60500000       4.63323591      16.60652000  T        2
Mg       4.81500000       4.63323591      16.60652000  T        2
Mg       8.02500000       4.63323591      16.60652000  T        2
Mg       3.21000000       7.41317746      16.60652000  T        2
Mg       6.42000000       7.41317746      16.60652000  T        2
Mg       9.63000000       7.41317746      16.60652000  T        2
Mg       0.00000000       0.00000000      19.21304000  T        1
Mg       3.21000000       0.00000000      19.21304000  T        1
Mg       6.42000000       0.00000000      19.21304000  T        1
Mg       1.60500000       2.77994155      19.21304000  T        1
Mg       4.81500000       2.77994155      19.21304000  T        1
Mg       8.02500000       2.77994155      19.21304000  T        1
Mg       3.21000000       5.55988309      19.21304000  T        1
Mg       6.42000000       5.55988309      19.21304000  T        1
Mg       9.63000000       5.55988309      19.21304000  T        1
O        5.88500000       0.67664718      21.61304000  T        0
28
Lattice="9.629999999999999 0.0 0.0 4.8149999999999995 8.339824638444142 0.0 0.0 0.0 33.21303999999999" Properties=species:S:1:pos:R:3:move_mask:L:1:tags:I:1 surface_element=Mg miller="0 0 0 1" slab_size="3 3 3" vacuum_angstrom=14.0 fixed_layers=1 fixed_atom_indices="0 1 2 3 4 5 6 7 8" system_name=mg0001_o_pilot_jitter adsorbate=O site=top orientation=atom height_angstrom=1.6 lateral_jitter_index=0 lateral_jitter_dx_angstrom=0.0 lateral_jitter_dy_angstrom=0.0 structure_id=0aa0b2a8b9e7bb13 pbc="T T T"
Mg       0.00000000       0.00000000      14.00000000  F        3
Mg       3.21000000       0.00000000      14.00000000  F        3
Mg       6.42000000       0.00000000      14.00000000  F        3
Mg       1.60500000       2.77994155      14.00000000  F        3
Mg       4.81500000       2.77994155      14.00000000  F        3
Mg       8.02500000       2.77994155      14.00000000  F        3
Mg       3.21000000       5.55988309      14.00000000  F        3
Mg       6.42000000       5.55988309      14.00000000  F        3
Mg       9.63000000       5.55988309      14.00000000  F        3
Mg      -0.00000000       1.85329436      16.60652000  T        2
Mg       3.21000000       1.85329436      16.60652000  T        2
Mg       6.42000000       1.85329436      16.60652000  T        2
Mg       1.60500000       4.63323591      16.60652000  T        2
Mg       4.81500000       4.63323591      16.60652000  T        2
Mg       8.02500000       4.63323591      16.60652000  T        2
Mg       3.21000000       7.41317746      16.60652000  T        2
Mg       6.42000000       7.41317746      16.60652000  T        2
Mg       9.63000000       7.41317746      16.60652000  T        2
Mg       0.00000000       0.00000000      19.21304000  T        1
Mg       3.21000000       0.00000000      19.21304000  T        1
Mg       6.42000000       0.00000000      19.21304000  T        1
Mg       1.60500000       2.77994155      19.21304000  T        1
Mg       4.81500000       2.77994155      19.21304000  T        1
Mg       8.02500000       2.77994155      19.21304000  T        1
Mg       3.21000000       5.55988309      19.21304000  T        1
Mg       6.42000000       5.55988309      19.21304000  T        1
Mg       9.63000000       5.55988309      19.21304000  T        1
O        3.21000000       0.00000000      20.81304000  T        0
28
Lattice="9.629999999999999 0.0 0.0 4.8149999999999995 8.339824638444142 0.0 0.0 0.0 33.21303999999999" Properties=species:S:1:pos:R:3:move_mask:L:1:tags:I:1 surface_element=Mg miller="0 0 0 1" slab_size="3 3 3" vacuum_angstrom=14.0 fixed_layers=1 fixed_atom_indices="0 1 2 3 4 5 6 7 8" system_name=mg0001_o_pilot_jitter adsorbate=O site=top orientation=atom height_angstrom=1.6 lateral_jitter_index=1 lateral_jitter_dx_angstrom=0.25 lateral_jitter_dy_angstrom=0.0 structure_id=48e13434b8f772fe pbc="T T T"
Mg       0.00000000       0.00000000      14.00000000  F        3
Mg       3.21000000       0.00000000      14.00000000  F        3
Mg       6.42000000       0.00000000      14.00000000  F        3
Mg       1.60500000       2.77994155      14.00000000  F        3
Mg       4.81500000       2.77994155      14.00000000  F        3
Mg       8.02500000       2.77994155      14.00000000  F        3
Mg       3.21000000       5.55988309      14.00000000  F        3
Mg       6.42000000       5.55988309      14.00000000  F        3
Mg       9.63000000       5.55988309      14.00000000  F        3
Mg      -0.00000000       1.85329436      16.60652000  T        2
Mg       3.21000000       1.85329436      16.60652000  T        2
Mg       6.42000000       1.85329436      16.60652000  T        2
Mg       1.60500000       4.63323591      16.60652000  T        2
Mg       4.81500000       4.63323591      16.60652000  T        2
Mg       8.02500000       4.63323591      16.60652000  T        2
Mg       3.21000000       7.41317746      16.60652000  T        2
Mg       6.42000000       7.41317746      16.60652000  T        2
Mg       9.63000000       7.41317746      16.60652000  T        2
Mg       0.00000000       0.00000000      19.21304000  T        1
Mg       3.21000000       0.00000000      19.21304000  T        1
Mg       6.42000000       0.00000000      19.21304000  T        1
Mg       1.60500000       2.77994155      19.21304000  T        1
Mg       4.81500000       2.77994155      19.21304000  T        1
Mg       8.02500000       2.77994155      19.21304000  T        1
Mg       3.21000000       5.55988309      19.21304000  T        1
Mg       6.42000000       5.55988309      19.21304000  T        1
Mg       9.63000000       5.55988309      19.21304000  T        1
O        0.25000000       0.00000000      20.81304000  T        0
28
Lattice="9.629999999999999 0.0 0.0 4.8149999999999995 8.339824638444142 0.0 0.0 0.0 33.21303999999999" Properties=species:S:1:pos:R:3:move_mask:L:1:tags:I:1 surface_element=Mg miller="0 0 0 1" slab_size="3 3 3" vacuum_angstrom=14.0 fixed_layers=1 fixed_atom_indices="0 1 2 3 4 5 6 7 8" system_name=mg0001_o_pilot_jitter adsorbate=O site=top orientation=atom height_angstrom=1.6 lateral_jitter_index=2 lateral_jitter_dx_angstrom=-0.25 lateral_jitter_dy_angstrom=0.0 structure_id=8e7572963539f914 pbc="T T T"
Mg       0.00000000       0.00000000      14.00000000  F        3
Mg       3.21000000       0.00000000      14.00000000  F        3
Mg       6.42000000       0.00000000      14.00000000  F        3
Mg       1.60500000       2.77994155      14.00000000  F        3
Mg       4.81500000       2.77994155      14.00000000  F        3
Mg       8.02500000       2.77994155      14.00000000  F        3
Mg       3.21000000       5.55988309      14.00000000  F        3
Mg       6.42000000       5.55988309      14.00000000  F        3
Mg       9.63000000       5.55988309      14.00000000  F        3
Mg      -0.00000000       1.85329436      16.60652000  T        2
Mg       3.21000000       1.85329436      16.60652000  T        2
Mg       6.42000000       1.85329436      16.60652000  T        2
Mg       1.60500000       4.63323591      16.60652000  T        2
Mg       4.81500000       4.63323591      16.60652000  T        2
Mg       8.02500000       4.63323591      16.60652000  T        2
Mg       3.21000000       7.41317746      16.60652000  T        2
Mg       6.42000000       7.41317746      16.60652000  T        2
Mg       9.63000000       7.41317746      16.60652000  T        2
Mg       0.00000000       0.00000000      19.21304000  T        1
Mg       3.21000000       0.00000000      19.21304000  T        1
Mg       6.42000000       0.00000000      19.21304000  T        1
Mg       1.60500000       2.77994155      19.21304000  T        1
Mg       4.81500000       2.77994155      19.21304000  T        1
Mg       8.02500000       2.77994155      19.21304000  T        1
Mg       3.21000000       5.55988309      19.21304000  T        1
Mg       6.42000000       5.55988309      19.21304000  T        1
Mg       9.63000000       5.55988309      19.21304000  T        1
O       -0.25000000       0.00000000      20.81304000  T        0
