13
Lattice="6.42 0.0 0.0 3.21 5.559883092296095 0.0 0.0 0.0 25.213039999999996" Properties=species:S:1:pos:R:3:move_mask:L:1:tags:I:1 surface_element=Mg miller="_JSON [0, 0, 0, 1]" slab_size="_JSON [2, 2, 3]" vacuum_angstrom=10.0 fixed_layers=1 fixed_atom_indices="_JSON [0, 1, 2, 3]" system_name=mg0001_o_smoke adsorbate=O site=hcp orientation=atom height_angstrom=2.0 structure_id=4dd34df24c37a67f pbc="T T T"
Mg       0.00000000       0.00000000      10.00000000  F        3
Mg       3.21000000       0.00000000      10.00000000  F        3
Mg       1.60500000       2.77994155      10.00000000  F        3
Mg       4.81500000       2.77994155      10.00000000  F        3
Mg       0.00000000       1.85329436      12.60652000  T        2
Mg       3.21000000       1.85329436      12.60652000  T        2
Mg       1.60500000       4.63323591      12.60652000  T        2
Mg       4.81500000       4.63323591      12.60652000  T        2
Mg       0.00000000       0.00000000      15.21304000  T        1
Mg       3.21000000       0.00000000      15.21304000  T        1
Mg       1.60500000       2.77994155      15.21304000  T        1
Mg       4.81500000       2.77994155      15.21304000  T        1
O        2.14000000       1.85329436      17.21304000  T        0
