13
Lattice="6.42 0.0 0.0 3.21 5.559883092296095 0.0 0.0 0.0 25.213039999999996" Properties=species:S:1:pos:R:3:move_mask:L:1:tags:I:1 surface_element=Mg miller="_JSON [0, 0, 0, 1]" slab_size="_JSON [2, 2, 3]" vacuum_angstrom=10.0 fixed_layers=1 fixed_atom_indices="_JSON [0, 1, 2, 3]" system_name=mg0001_o_debug adsorbate=O site=top orientation=atom height_angstrom=1.6 structure_id=84210da96e566d5f pbc="T T T"
Mg       0.00000000       0.00000000      10.00000000  F        3
Mg       3.21000000       0.00000000      10.00000000  F        3
Mg       1.60500000       2.77994155      10.00000000  F        3
Mg       4.81500000       2.77994155      10.00000000  F        3
Mg       0.00000000       1.85329436      12.60652000  T        2
Mg       3.21000000       1.85329436      12.60652000  T        2
Mg       1.60500000       4.63323591      12.60652000  T        2
Mg       4.81500000       4.63323591      12.60652000  T        2
Mg       0.00000000       0.00000000      15.21304000  T        1
Mg       3.21000000       0.00000000      15.21304000  T        1
Mg       1.60500000       2.77994155      15.21304000  T        1
Mg       4.81500000       2.77994155      15.21304000  T        1
O        0.00000000       0.00000000      16.81304000  T        0
13
Lattice="6.42 0.0 0.0 3.21 5.559883092296095 0.0 0.0 0.0 25.213039999999996" Properties=species:S:1:pos:R:3:move_mask:L:1:tags:I:1 surface_element=Mg miller="_JSON [0, 0, 0, 1]" slab_size="_JSON [2, 2, 3]" vacuum_angstrom=10.0 fixed_layers=1 fixed_atom_indices="_JSON [0, 1, 2, 3]" system_name=mg0001_o_debug adsorbate=O site=top orientation=atom height_angstrom=2.0 structure_id=af93973140fe595b pbc="T T T"
Mg       0.00000000       0.00000000      10.00000000  F        3
Mg       3.21000000       0.00000000      10.00000000  F        3
Mg       1.60500000       2.77994155      10.00000000  F        3
Mg       4.81500000       2.77994155      10.00000000  F        3
Mg       0.00000000       1.85329436      12.60652000  T        2
Mg       3.21000000       1.85329436      12.60652000  T        2
Mg       1.60500000       4.63323591      12.60652000  T        2
Mg       4.81500000       4.63323591      12.60652000  T        2
Mg       0.00000000       0.00000000      15.21304000  T        1
Mg       3.21000000       0.00000000      15.21304000  T        1
Mg       1.60500000       2.77994155      15.21304000  T        1
Mg       4.81500000       2.77994155      15.21304000  T        1
O        0.00000000       0.00000000      17.21304000  T        0
13
Lattice="6.42 0.0 0.0 3.21 5.559883092296095 0.0 0.0 0.0 25.213039999999996" Properties=species:S:1:pos:R:3:move_mask:L:1:tags:I:1 surface_element=Mg miller="_JSON [0, 0, 0, 1]" slab_size="_JSON [2, 2, 3]" vacuum_angstrom=10.0 fixed_layers=1 fixed_atom_indices="_JSON [0, 1, 2, 3]" system_name=mg0001_o_debug adsorbate=O site=top orientation=atom height_angstrom=2.4 structure_id=22a44412cf566eb8 pbc="T T T"
Mg       0.00000000       0.00000000      10.00000000  F        3
Mg       3.21000000       0.00000000      10.00000000  F        3
Mg       1.60500000       2.77994155      10.00000000  F        3
Mg       4.81500000       2.77994155      10.00000000  F        3
Mg       0.00000000       1.85329436      12.60652000  T        2
Mg       3.21000000       1.85329436      12.60652000  T        2
Mg       1.60500000       4.63323591      12.60652000  T        2
Mg       4.81500000       4.63323591      12.60652000  T        2
Mg       0.00000000       0.00000000      15.21304000  T        1
Mg       3.21000000       0.00000000      15.21304000  T        1
Mg       1.60500000       2.77994155      15.21304000  T        1
Mg       4.81500000       2.77994155      15.21304000  T        1
O        0.00000000       0.00000000      17.61304000  T        0
13
Lattice="6.42 0.0 0.0 3.21 5.559883092296095 0.0 0.0 0.0 25.213039999999996" Properties=species:S:1:pos:R:3:move_mask:L:1:tags:I:1 surface_element=Mg miller="_JSON [0, 0, 0, 1]" slab_size="_JSON [2, 2, 3]" vacuum_angstrom=10.0 fixed_layers=1 fixed_atom_indices="_JSON [0, 1, 2, 3]" system_name=mg0001_o_debug adsorbate=O site=bridge orientation=atom height_angstrom=1.6 structure_id=c0e80c3f8db2ae82 pbc="T T T"
Mg       0.00000000       0.00000000      10.00000000  F        3
Mg       3.21000000       0.00000000      10.00000000  F        3
Mg       1.60500000       2.77994155      10.00000000  F        3
Mg       4.81500000       2.77994155      10.00000000  F        3
Mg       0.00000000       1.85329436      12.60652000  T        2
Mg       3.21000000       1.85329436      12.60652000  T        2
Mg       1.60500000       4.63323591      12.60652000  T        2
Mg       4.81500000       4.63323591      12.60652000  T        2
Mg       0.00000000       0.00000000      15.21304000  T        1
Mg       3.21000000       0.00000000      15.21304000  T        1
Mg       1.60500000       2.77994155      15.21304000  T        1
Mg       4.81500000       2.77994155      15.21304000  T        1
O        0.80250000       1.38997077      16.81304000  T        0
13
Lattice="6.42 0.0 0.0 3.21 5.559883092296095 0.0 0.0 0.0 25.213039999999996" Properties=species:S:1:pos:R:3:move_mask:L:1:tags:I:1 surface_element=Mg miller="_JSON [0, 0, 0, 1]" slab_size="_JSON [2, 2, 3]" vacuum_angstrom=10.0 fixed_layers=1 fixed_atom_indices="_JSON [0, 1, 2, 3]" system_name=mg0001_o_debug adsorbate=O site=bridge orientation=atom height_angstrom=2.0 structure_id=17453818539e1161 pbc="T T T"
Mg       0.00000000       0.00000000      10.00000000  F        3
Mg       3.21000000       0.00000000      10.00000000  F        3
Mg       1.60500000       2.77994155      10.00000000  F        3
Mg       4.81500000       2.77994155      10.00000000  F        3
Mg       0.00000000       1.85329436      12.60652000  T        2
Mg       3.21000000       1.85329436      12.60652000  T        2
Mg       1.60500000       4.63323591      12.60652000  T        2
Mg       4.81500000       4.63323591      12.60652000  T        2
Mg       0.00000000       0.00000000      15.21304000  T        1
Mg       3.21000000       0.00000000      15.21304000  T        1
Mg       1.60500000       2.77994155      15.21304000  T        1
Mg       4.81500000       2.77994155      15.21304000  T        1
O        0.80250000       1.38997077      17.21304000  T        0
13
Lattice="6.42 0.0 0.0 3.21 5.559883092296095 0.0 0.0 0.0 25.213039999999996" Properties=species:S:1:pos:R:3:move_mask:L:1:tags:I:1 surface_element=Mg miller="_JSON [0, 0, 0, 1]" slab_size="_JSON [2, 2, 3]" vacuum_angstrom=10.0 fixed_layers=1 fixed_atom_indices="_JSON [0, 1, 2, 3]" system_name=mg0001_o_debug adsorbate=O site=bridge orientation=atom height_angstrom=2.4 structure_id=a2a22756ea7d51da pbc="T T T"
Mg       0.00000000       0.00000000      10.00000000  F        3
Mg       3.21000000       0.00000000      10.00000000  F        3
Mg       1.60500000       2.77994155      10.00000000  F        3
Mg       4.81500000       2.77994155      10.00000000  F        3
Mg       0.00000000       1.85329436      12.60652000  T        2
Mg       3.21000000       1.85329436      12.60652000  T        2
Mg       1.60500000       4.63323591      12.60652000  T        2
Mg       4.81500000       4.63323591      12.60652000  T        2
Mg       0.00000000       0.00000000      15.21304000  T        1
Mg       3.21000000       0.00000000      15.21304000  T        1
Mg       1.60500000       2.77994155      15.21304000  T        1
Mg       4.81500000       2.77994155      15.21304000  T        1
O        0.80250000       1.38997077      17.61304000  T        0
13
Lattice="6.42 0.0 0.0 3.21 5.559883092296095 0.0 0.0 0.0 25.213039999999996" Properties=species:S:1:pos:R:3:move_mask:L:1:tags:I:1 surface_element=Mg miller="_JSON [0, 0, 0, 1]" slab_size="_JSON [2, 2, 3]" vacuum_angstrom=10.0 fixed_layers=1 fixed_atom_indices="_JSON [0, 1, 2, 3]" system_name=mg0001_o_debug adsorbate=O site=fcc orientation=atom height_angstrom=1.6 structure_id=4d00370b632fa437 pbc="T T T"
Mg       0.00000000       0.00000000      10.00000000  F        3
Mg       3.21000000       0.00000000      10.00000000  F        3
Mg       1.60500000       2.77994155      10.00000000  F        3
Mg       4.81500000       2.77994155      10.00000000  F        3
Mg       0.00000000       1.85329436      12.60652000  T        2
Mg       3.21000000       1.85329436      12.60652000  T        2
Mg       1.60500000       4.63323591      12.60652000  T        2
Mg       4.81500000       4.63323591      12.60652000  T        2
Mg       0.00000000       0.00000000      15.21304000  T        1
Mg       3.21000000       0.00000000      15.21304000  T        1
Mg       1.60500000       2.77994155      15.21304000  T        1
Mg       4.81500000       2.77994155      15.21304000  T        1
O        1.60500000       0.92664718      16.81304000  T        0
13
Lattice="6.42 0.0 0.0 3.21 5.559883092296095 0.0 0.0 0.0 25.213039999999996" Properties=species:S:1:pos:R:3:move_mask:L:1:tags:I:1 surface_element=Mg miller="_JSON [0, 0, 0, 1]" slab_size="_JSON [2, 2, 3]" vacuum_angstrom=10.0 fixed_layers=1 fixed_atom_indices="_JSON [0, 1, 2, 3]" system_name=mg0001_o_debug adsorbate=O site=fcc orientation=atom height_angstrom=2.0 structure_id=cf3dec1024a17bba pbc="T T T"
Mg       0.00000000       0.00000000      10.00000000  F        3
Mg       3.21000000       0.00000000      10.00000000  F        3
Mg       1.60500000       2.77994155      10.00000000  F        3
Mg       4.81500000       2.77994155      10.00000000  F        3
Mg       0.00000000       1.85329436      12.60652000  T        2
Mg       3.21000000       1.85329436      12.60652000  T        2
Mg       1.60500000       4.63323591      12.60652000  T        2
Mg       4.81500000       4.63323591      12.60652000  T        2
Mg       0.00000000       0.00000000      15.21304000  T        1
Mg       3.21000000       0.00000000      15.21304000  T        1
Mg       1.60500000       2.77994155      15.21304000  T        1
Mg       4.81500000       2.77994155      15.21304000  T        1
O        1.60500000       0.92664718      17.21304000  T        0
13
Lattice="6.42 0.0 0.0 3.21 5.559883092296095 0.0 0.0 0.0 25.213039999999996" Properties=species:S:1:pos:R:3:move_mask:L:1:tags:I:1 surface_element=Mg miller="_JSON [0, 0, 0, 1]" slab_size="_JSON [2, 2, 3]" vacuum_angstrom=10.0 fixed_layers=1 fixed_atom_indices="_JSON [0, 1, 2, 3]" system_name=mg0001_o_debug adsorbate=O site=fcc orientation=atom height_angstrom=2.4 structure_id=d6956ca864e76798 pbc="T T T"
Mg       0.00000000       0.00000000      10.00000000  F        3
Mg       3.21000000       0.00000000      10.00000000  F        3
Mg       1.60500000       2.77994155      10.00000000  F        3
Mg       4.81500000       2.77994155      10.00000000  F        3
Mg       0.00000000       1.85329436      12.60652000  T        2
Mg       3.21000000       1.85329436      12.60652000  T        2
Mg       1.60500000       4.63323591      12.60652000  T        2
Mg       4.81500000       4.63323591      12.60652000  T        2
Mg       0.00000000       0.00000000      15.21304000  T        1
Mg       3.21000000       0.00000000      15.21304000  T        1
Mg       1.60500000       2.77994155      15.21304000  T        1
Mg       4.81500000       2.77994155      15.21304000  T        1
O        1.60500000       0.92664718      17.61304000  T        0
13
Lattice="6.42 0.0 0.0 3.21 5.559883092296095 0.0 0.0 0.0 25.213039999999996" Properties=species:S:1:pos:R:3:move_mask:L:1:tags:I:1 surface_element=Mg miller="_JSON [0, 0, 0, 1]" slab_size="_JSON [2, 2, 3]" vacuum_angstrom=10.0 fixed_layers=1 fixed_atom_indices="_JSON [0, 1, 2, 3]" system_name=mg0001_o_debug adsorbate=O site=hcp orientation=atom height_angstrom=1.6 structure_id=272134a217800bfb pbc="T T T"
Mg       0.00000000       0.00000000      10.00000000  F        3
Mg       3.21000000       0.00000000      10.00000000  F        3
Mg       1.60500000       2.77994155      10.00000000  F        3
Mg       4.81500000       2.77994155      10.00000000  F        3
Mg       0.00000000       1.85329436      12.60652000  T        2
Mg       3.21000000       1.85329436      12.60652000  T        2
Mg       1.60500000       4.63323591      12.60652000  T        2
Mg       4.81500000       4.63323591      12.60652000  T        2
Mg       0.00000000       0.00000000      15.21304000  T        1
Mg       3.21000000       0.00000000      15.21304000  T        1
Mg       1.60500000       2.77994155      15.21304000  T        1
Mg       4.81500000       2.77994155      15.21304000  T        1
O        2.14000000       1.85329436      16.81304000  T        0
13
Lattice="6.42 0.0 0.0 3.21 5.559883092296095 0.0 0.0 0.0 25.213039999999996" Properties=species:S:1:pos:R:3:move_mask:L:1:tags:I:1 surface_element=Mg miller="_JSON [0, 0, 0, 1]" slab_size="_JSON [2, 2, 3]" vacuum_angstrom=10.0 fixed_layers=1 fixed_atom_indices="_JSON [0, 1, 2, 3]" system_name=mg0001_o_debug adsorbate=O site=hcp orientation=atom height_angstrom=2.0 structure_id=4dd34df24c37a67f pbc="T T T"
Mg       0.00000000       0.00000000      10.00000000  F        3
Mg       3.21000000       0.00000000      10.00000000  F        3
Mg       1.60500000       2.77994155      10.00000000  F        3
Mg       4.81500000       2.77994155      10.00000000  F        3
Mg       0.00000000       1.85329436      12.60652000  T        2
Mg       3.21000000       1.85329436      12.60652000  T        2
Mg       1.60500000       4.63323591      12.60652000  T        2
Mg       4.81500000       4.63323591      12.60652000  T        2
Mg       0.00000000       0.00000000      15.21304000  T        1
Mg       3.21000000       0.00000000      15.21304000  T        1
Mg       1.60500000       2.77994155      15.21304000  T        1
Mg       4.81500000       2.77994155      15.21304000  T        1
O        2.14000000       1.85329436      17.21304000  T        0
13
Lattice="6.42 0.0 0.0 3.21 5.559883092296095 0.0 0.0 0.0 25.213039999999996" Properties=species:S:1:pos:R:3:move_mask:L:1:tags:I:1 surface_element=Mg miller="_JSON [0, 0, 0, 1]" slab_size="_JSON [2, 2, 3]" vacuum_angstrom=10.0 fixed_layers=1 fixed_atom_indices="_JSON [0, 1, 2, 3]" system_name=mg0001_o_debug adsorbate=O site=hcp orientation=atom height_angstrom=2.4 structure_id=d934123ad1c64e6c pbc="T T T"
Mg       0.00000000       0.00000000      10.00000000  F        3
Mg       3.21000000       0.00000000      10.00000000  F        3
Mg       1.60500000       2.77994155      10.00000000  F        3
Mg       4.81500000       2.77994155      10.00000000  F        3
Mg       0.00000000       1.85329436      12.60652000  T        2
Mg       3.21000000       1.85329436      12.60652000  T        2
Mg       1.60500000       4.63323591      12.60652000  T        2
Mg       4.81500000       4.63323591      12.60652000  T        2
Mg       0.00000000       0.00000000      15.21304000  T        1
Mg       3.21000000       0.00000000      15.21304000  T        1
Mg       1.60500000       2.77994155      15.21304000  T        1
Mg       4.81500000       2.77994155      15.21304000  T        1
O        2.14000000       1.85329436      17.61304000  T        0
