27
Lattice="9.629999999999999 0.0 0.0 4.8149999999999995 8.339824638444142 0.0 0.0 0.0 33.21303999999999" Properties=species:S:1:pos:R:3:move_mask:L:1:tags:I:1 surface_element=Mg miller="_JSON [0, 0, 0, 1]" slab_size="_JSON [3, 3, 3]" vacuum_angstrom=14.0 fixed_layers=1 fixed_atom_indices="_JSON [0, 1, 2, 3, 4, 5, 6, 7, 8]" system_name=mg0001_o_pilot reference_kind=clean_slab adsorbate=none reference_id=mg0001_clean_3x3x3 structure_id=d78831db0d40c74b pbc="T T T"
Mg       0.00000000       0.00000000      14.00000000  F        3
Mg       3.21000000       0.00000000      14.00000000  F        3
Mg       6.42000000       0.00000000      14.00000000  F        3
Mg       1.60500000       2.77994155      14.00000000  F        3
Mg       4.81500000       2.77994155      14.00000000  F        3
Mg       8.02500000       2.77994155      14.00000000  F        3
Mg       3.21000000       5.55988309      14.00000000  F        3
Mg       6.42000000       5.55988309      14.00000000  F        3
Mg       9.63000000       5.55988309      14.00000000  F        3
Mg      -0.00000000       1.85329436      16.60652000  T        2
Mg       3.21000000       1.85329436      16.60652000  T        2
Mg       6.42000000       1.85329436      16.60652000  T        2
Mg       1.60500000       4.63323591      16.60652000  T        2
Mg       4.81500000       4.63323591      16.60652000  T        2
Mg       8.02500000       4.63323591      16.60652000  T        2
Mg       3.21000000       7.41317746      16.60652000  T        2
Mg       6.42000000       7.41317746      16.60652000  T        2
Mg       9.63000000       7.41317746      16.60652000  T        2
Mg       0.00000000       0.00000000      19.21304000  T        1
Mg       3.21000000       0.00000000      19.21304000  T        1
Mg       6.42000000       0.00000000      19.21304000  T        1
Mg       1.60500000       2.77994155      19.21304000  T        1
Mg       4.81500000       2.77994155      19.21304000  T        1
Mg       8.02500000       2.77994155      19.21304000  T        1
Mg       3.21000000       5.55988309      19.21304000  T        1
Mg       6.42000000       5.55988309      19.21304000  T        1
Mg       9.63000000       5.55988309      19.21304000  T        1
1
Lattice="12.0 0.0 0.0 0.0 12.0 0.0 0.0 0.0 12.0" Properties=species:S:1:pos:R:3 adsorbate_name=O system_name=mg0001_o_pilot reference_kind=isolated_adsorbate adsorbate=O reference_id=o_atom molecule_box_angstrom=12.0 structure_id=a2f8b4e1195f920c pbc="T T T"
O        6.00000000       6.00000000       6.00000000
