65
Lattice="12.84 0.0 0.0 6.42 11.11976618459219 0.0 0.0 0.0 43.819559999999996" Properties=species:S:1:pos:R:3:move_mask:L:1:tags:I:1 surface_element=Mg miller="_JSON [0, 0, 0, 1]" slab_size="_JSON [4, 4, 4]" vacuum_angstrom=18.0 fixed_layers=2 fixed_atom_indices="_JSON [0, 1, 2, 3, 4, 5, 6, 7, 8, 9, 10, 11, 12, 13, 14, 15, 16, 17, 18, 19, 20, 21, 22, 23, 24, 25, 26, 27, 28, 29, 30, 31]" system_name=mg0001_o adsorbate=O site=top orientation=atom height_angstrom=1.6 structure_id=a7a11834b58ebeff pbc="T T T"
Mg       0.00000000       1.85329436      18.00000000  F        4
Mg       3.21000000       1.85329436      18.00000000  F        4
Mg       6.42000000       1.85329436      18.00000000  F        4
Mg       9.63000000       1.85329436      18.00000000  F        4
Mg       1.60500000       4.63323591      18.00000000  F        4
Mg       4.81500000       4.63323591      18.00000000  F        4
Mg       8.02500000       4.63323591      18.00000000  F        4
Mg      11.23500000       4.63323591      18.00000000  F        4
Mg       3.21000000       7.41317746      18.00000000  F        4
Mg       6.42000000       7.41317746      18.00000000  F        4
Mg       9.63000000       7.41317746      18.00000000  F        4
Mg      12.84000000       7.41317746      18.00000000  F        4
Mg       4.81500000      10.19311900      18.00000000  F        4
Mg       8.02500000      10.19311900      18.00000000  F        4
Mg      11.23500000      10.19311900      18.00000000  F        4
Mg      14.44500000      10.19311900      18.00000000  F        4
Mg       0.00000000       0.00000000      20.60652000  F        3
Mg       3.21000000       0.00000000      20.60652000  F        3
Mg       6.42000000       0.00000000      20.60652000  F        3
Mg       9.63000000       0.00000000      20.60652000  F        3
Mg       1.60500000       2.77994155      20.60652000  F        3
Mg       4.81500000       2.77994155      20.60652000  F        3
Mg       8.02500000       2.77994155      20.60652000  F        3
Mg      11.23500000       2.77994155      20.60652000  F        3
Mg       3.21000000       5.55988309      20.60652000  F        3
Mg       6.42000000       5.55988309      20.60652000  F        3
Mg       9.63000000       5.55988309      20.60652000  F        3
Mg      12.84000000       5.55988309      20.60652000  F        3
Mg       4.81500000       8.33982464      20.60652000  F        3
Mg       8.02500000       8.33982464      20.60652000  F        3
Mg      11.23500000       8.33982464      20.60652000  F        3
Mg      14.44500000       8.33982464      20.60652000  F        3
Mg       0.00000000       1.85329436      23.21304000  T        2
Mg       3.21000000       1.85329436      23.21304000  T        2
Mg       6.42000000       1.85329436      23.21304000  T        2
Mg       9.63000000       1.85329436      23.21304000  T        2
Mg       1.60500000       4.63323591      23.21304000  T        2
Mg       4.81500000       4.63323591      23.21304000  T        2
Mg       8.02500000       4.63323591      23.21304000  T        2
Mg      11.23500000       4.63323591      23.21304000  T        2
Mg       3.21000000       7.41317746      23.21304000  T        2
Mg       6.42000000       7.41317746      23.21304000  T        2
Mg       9.63000000       7.41317746      23.21304000  T        2
Mg      12.84000000       7.41317746      23.21304000  T        2
Mg       4.81500000      10.19311900      23.21304000  T        2
Mg       8.02500000      10.19311900      23.21304000  T        2
Mg      11.23500000      10.19311900      23.21304000  T        2
Mg      14.44500000      10.19311900      23.21304000  T        2
Mg       0.00000000       0.00000000      25.81956000  T        1
Mg       3.21000000       0.00000000      25.81956000  T        1
Mg       6.42000000       0.00000000      25.81956000  T        1
Mg       9.63000000       0.00000000      25.81956000  T        1
Mg       1.60500000       2.77994155      25.81956000  T        1
Mg       4.81500000       2.77994155      25.81956000  T        1
Mg       8.02500000       2.77994155      25.81956000  T        1
Mg      11.23500000       2.77994155      25.81956000  T        1
Mg       3.21000000       5.55988309      25.81956000  T        1
Mg       6.42000000       5.55988309      25.81956000  T        1
Mg       9.63000000       5.55988309      25.81956000  T        1
Mg      12.84000000       5.55988309      25.81956000  T        1
Mg       4.81500000       8.33982464      25.81956000  T        1
Mg       8.02500000       8.33982464      25.81956000  T        1
Mg      11.23500000       8.33982464      25.81956000  T        1
Mg      14.44500000       8.33982464      25.81956000  T        1
O        0.00000000       0.00000000      27.41956000  T        0
65
Lattice="12.84 0.0 0.0 6.42 11.11976618459219 0.0 0.0 0.0 43.819559999999996" Properties=species:S:1:pos:R:3:move_mask:L:1:tags:I:1 surface_element=Mg miller="_JSON [0, 0, 0, 1]" slab_size="_JSON [4, 4, 4]" vacuum_angstrom=18.0 fixed_layers=2 fixed_atom_indices="_JSON [0, 1, 2, 3, 4, 5, 6, 7, 8, 9, 10, 11, 12, 13, 14, 15, 16, 17, 18, 19, 20, 21, 22, 23, 24, 25, 26, 27, 28, 29, 30, 31]" system_name=mg0001_o adsorbate=O site=top orientation=atom height_angstrom=2.0 structure_id=3047a549845e65f1 pbc="T T T"
Mg       0.00000000       1.85329436      18.00000000  F        4
Mg       3.21000000       1.85329436      18.00000000  F        4
Mg       6.42000000       1.85329436      18.00000000  F        4
Mg       9.63000000       1.85329436      18.00000000  F        4
Mg       1.60500000       4.63323591      18.00000000  F        4
Mg       4.81500000       4.63323591      18.00000000  F        4
Mg       8.02500000       4.63323591      18.00000000  F        4
Mg      11.23500000       4.63323591      18.00000000  F        4
Mg       3.21000000       7.41317746      18.00000000  F        4
Mg       6.42000000       7.41317746      18.00000000  F        4
Mg       9.63000000       7.41317746      18.00000000  F        4
Mg      12.84000000       7.41317746      18.00000000  F        4
Mg       4.81500000      10.19311900      18.00000000  F        4
Mg       8.02500000      10.19311900      18.00000000  F        4
Mg      11.23500000      10.19311900      18.00000000  F        4
Mg      14.44500000      10.19311900      18.00000000  F        4
Mg       0.00000000       0.00000000      20.60652000  F        3
Mg       3.21000000       0.00000000      20.60652000  F        3
Mg       6.42000000       0.00000000      20.60652000  F        3
Mg       9.63000000       0.00000000      20.60652000  F        3
Mg       1.60500000       2.77994155      20.60652000  F        3
Mg       4.81500000       2.77994155      20.60652000  F        3
Mg       8.02500000       2.77994155      20.60652000  F        3
Mg      11.23500000       2.77994155      20.60652000  F        3
Mg       3.21000000       5.55988309      20.60652000  F        3
Mg       6.42000000       5.55988309      20.60652000  F        3
Mg       9.63000000       5.55988309      20.60652000  F        3
Mg      12.84000000       5.55988309      20.60652000  F        3
Mg       4.81500000       8.33982464      20.60652000  F        3
Mg       8.02500000       8.33982464      20.60652000  F        3
Mg      11.23500000       8.33982464      20.60652000  F        3
Mg      14.44500000       8.33982464      20.60652000  F        3
Mg       0.00000000       1.85329436      23.21304000  T        2
Mg       3.21000000       1.85329436      23.21304000  T        2
Mg       6.42000000       1.85329436      23.21304000  T        2
Mg       9.63000000       1.85329436      23.21304000  T        2
Mg       1.60500000       4.63323591      23.21304000  T        2
Mg       4.81500000       4.63323591      23.21304000  T        2
Mg       8.02500000       4.63323591      23.21304000  T        2
Mg      11.23500000       4.63323591      23.21304000  T        2
Mg       3.21000000       7.41317746      23.21304000  T        2
Mg       6.42000000       7.41317746      23.21304000  T        2
Mg       9.63000000       7.41317746      23.21304000  T        2
Mg      12.84000000       7.41317746      23.21304000  T        2
Mg       4.81500000      10.19311900      23.21304000  T        2
Mg       8.02500000      10.19311900      23.21304000  T        2
Mg      11.23500000      10.19311900      23.21304000  T        2
Mg      14.44500000      10.19311900      23.21304000  T        2
Mg       0.00000000       0.00000000      25.81956000  T        1
Mg       3.21000000       0.00000000      25.81956000  T        1
Mg       6.42000000       0.00000000      25.81956000  T        1
Mg       9.63000000       0.00000000      25.81956000  T        1
Mg       1.60500000       2.77994155      25.81956000  T        1
Mg       4.81500000       2.77994155      25.81956000  T        1
Mg       8.02500000       2.77994155      25.81956000  T        1
Mg      11.23500000       2.77994155      25.81956000  T        1
Mg       3.21000000       5.55988309      25.81956000  T        1
Mg       6.42000000       5.55988309      25.81956000  T        1
Mg       9.63000000       5.55988309      25.81956000  T        1
Mg      12.84000000       5.55988309      25.81956000  T        1
Mg       4.81500000       8.33982464      25.81956000  T        1
Mg       8.02500000       8.33982464      25.81956000  T        1
Mg      11.23500000       8.33982464      25.81956000  T        1
Mg      14.44500000       8.33982464      25.81956000  T        1
O        0.00000000       0.00000000      27.81956000  T        0
65
Lattice="12.84 0.0 0.0 6.42 11.11976618459219 0.0 0.0 0.0 43.819559999999996" Properties=species:S:1:pos:R:3:move_mask:L:1:tags:I:1 surface_element=Mg miller="_JSON [0, 0, 0, 1]" slab_size="_JSON [4, 4, 4]" vacuum_angstrom=18.0 fixed_layers=2 fixed_atom_indices="_JSON [0, 1, 2, 3, 4, 5, 6, 7, 8, 9, 10, 11, 12, 13, 14, 15, 16, 17, 18, 19, 20, 21, 22, 23, 24, 25, 26, 27, 28, 29, 30, 31]" system_name=mg0001_o adsorbate=O site=top orientation=atom height_angstrom=2.4 structure_id=ca4b82169fab2553 pbc="T T T"
Mg       0.00000000       1.85329436      18.00000000  F        4
Mg       3.21000000       1.85329436      18.00000000  F        4
Mg       6.42000000       1.85329436      18.00000000  F        4
Mg       9.63000000       1.85329436      18.00000000  F        4
Mg       1.60500000       4.63323591      18.00000000  F        4
Mg       4.81500000       4.63323591      18.00000000  F        4
Mg       8.02500000       4.63323591      18.00000000  F        4
Mg      11.23500000       4.63323591      18.00000000  F        4
Mg       3.21000000       7.41317746      18.00000000  F        4
Mg       6.42000000       7.41317746      18.00000000  F        4
Mg       9.63000000       7.41317746      18.00000000  F        4
Mg      12.84000000       7.41317746      18.00000000  F        4
Mg       4.81500000      10.19311900      18.00000000  F        4
Mg       8.02500000      10.19311900      18.00000000  F        4
Mg      11.23500000      10.19311900      18.00000000  F        4
Mg      14.44500000      10.19311900      18.00000000  F        4
Mg       0.00000000       0.00000000      20.60652000  F        3
Mg       3.21000000       0.00000000      20.60652000  F        3
Mg       6.42000000       0.00000000      20.60652000  F        3
Mg       9.63000000       0.00000000      20.60652000  F        3
Mg       1.60500000       2.77994155      20.60652000  F        3
Mg       4.81500000       2.77994155      20.60652000  F        3
Mg       8.02500000       2.77994155      20.60652000  F        3
Mg      11.23500000       2.77994155      20.60652000  F        3
Mg       3.21000000       5.55988309      20.60652000  F        3
Mg       6.42000000       5.55988309      20.60652000  F        3
Mg       9.63000000       5.55988309      20.60652000  F        3
Mg      12.84000000       5.55988309      20.60652000  F        3
Mg       4.81500000       8.33982464      20.60652000  F        3
Mg       8.02500000       8.33982464      20.60652000  F        3
Mg      11.23500000       8.33982464      20.60652000  F        3
Mg      14.44500000       8.33982464      20.60652000  F        3
Mg       0.00000000       1.85329436      23.21304000  T        2
Mg       3.21000000       1.85329436      23.21304000  T        2
Mg       6.42000000       1.85329436      23.21304000  T        2
Mg       9.63000000       1.85329436      23.21304000  T        2
Mg       1.60500000       4.63323591      23.21304000  T        2
Mg       4.81500000       4.63323591      23.21304000  T        2
Mg       8.02500000       4.63323591      23.21304000  T        2
Mg      11.23500000       4.63323591      23.21304000  T        2
Mg       3.21000000       7.41317746      23.21304000  T        2
Mg       6.42000000       7.41317746      23.21304000  T        2
Mg       9.63000000       7.41317746      23.21304000  T        2
Mg      12.84000000       7.41317746      23.21304000  T        2
Mg       4.81500000      10.19311900      23.21304000  T        2
Mg       8.02500000      10.19311900      23.21304000  T        2
Mg      11.23500000      10.19311900      23.21304000  T        2
Mg      14.44500000      10.19311900      23.21304000  T        2
Mg       0.00000000       0.00000000      25.81956000  T        1
Mg       3.21000000       0.00000000      25.81956000  T        1
Mg       6.42000000       0.00000000      25.81956000  T        1
Mg       9.63000000       0.00000000      25.81956000  T        1
Mg       1.60500000       2.77994155      25.81956000  T        1
Mg       4.81500000       2.77994155      25.81956000  T        1
Mg       8.02500000       2.77994155      25.81956000  T        1
Mg      11.23500000       2.77994155      25.81956000  T        1
Mg       3.21000000       5.55988309      25.81956000  T        1
Mg       6.42000000       5.55988309      25.81956000  T        1
Mg       9.63000000       5.55988309      25.81956000  T        1
Mg      12.84000000       5.55988309      25.81956000  T        1
Mg       4.81500000       8.33982464      25.81956000  T        1
Mg       8.02500000       8.33982464      25.81956000  T        1
Mg      11.23500000       8.33982464      25.81956000  T        1
Mg      14.44500000       8.33982464      25.81956000  T        1
O        0.00000000       0.00000000      28.21956000  T        0
65
Lattice="12.84 0.0 0.0 6.42 11.11976618459219 0.0 0.0 0.0 43.819559999999996" Properties=species:S:1:pos:R:3:move_mask:L:1:tags:I:1 surface_element=Mg miller="_JSON [0, 0, 0, 1]" slab_size="_JSON [4, 4, 4]" vacuum_angstrom=18.0 fixed_layers=2 fixed_atom_indices="_JSON [0, 1, 2, 3, 4, 5, 6, 7, 8, 9, 10, 11, 12, 13, 14, 15, 16, 17, 18, 19, 20, 21, 22, 23, 24, 25, 26, 27, 28, 29, 30, 31]" system_name=mg0001_o adsorbate=O site=bridge orientation=atom height_angstrom=1.6 structure_id=f8a41e5d7a8cfa09 pbc="T T T"
Mg       0.00000000       1.85329436      18.00000000  F        4
Mg       3.21000000       1.85329436      18.00000000  F        4
Mg       6.42000000       1.85329436      18.00000000  F        4
Mg       9.63000000       1.85329436      18.00000000  F        4
Mg       1.60500000       4.63323591      18.00000000  F        4
Mg       4.81500000       4.63323591      18.00000000  F        4
Mg       8.02500000       4.63323591      18.00000000  F        4
Mg      11.23500000       4.63323591      18.00000000  F        4
Mg       3.21000000       7.41317746      18.00000000  F        4
Mg       6.42000000       7.41317746      18.00000000  F        4
Mg       9.63000000       7.41317746      18.00000000  F        4
Mg      12.84000000       7.41317746      18.00000000  F        4
Mg       4.81500000      10.19311900      18.00000000  F        4
Mg       8.02500000      10.19311900      18.00000000  F        4
Mg      11.23500000      10.19311900      18.00000000  F        4
Mg      14.44500000      10.19311900      18.00000000  F        4
Mg       0.00000000       0.00000000      20.60652000  F        3
Mg       3.21000000       0.00000000      20.60652000  F        3
Mg       6.42000000       0.00000000      20.60652000  F        3
Mg       9.63000000       0.00000000      20.60652000  F        3
Mg       1.60500000       2.77994155      20.60652000  F        3
Mg       4.81500000       2.77994155      20.60652000  F        3
Mg       8.02500000       2.77994155      20.60652000  F        3
Mg      11.23500000       2.77994155      20.60652000  F        3
Mg       3.21000000       5.55988309      20.60652000  F        3
Mg       6.42000000       5.55988309      20.60652000  F        3
Mg       9.63000000       5.55988309      20.60652000  F        3
Mg      12.84000000       5.55988309      20.60652000  F        3
Mg       4.81500000       8.33982464      20.60652000  F        3
Mg       8.02500000       8.33982464      20.60652000  F        3
Mg      11.23500000       8.33982464      20.60652000  F        3
Mg      14.44500000       8.33982464      20.60652000  F        3
Mg       0.00000000       1.85329436      23.21304000  T        2
Mg       3.21000000       1.85329436      23.21304000  T        2
Mg       6.42000000       1.85329436      23.21304000  T        2
Mg       9.63000000       1.85329436      23.21304000  T        2
Mg       1.60500000       4.63323591      23.21304000  T        2
Mg       4.81500000       4.63323591      23.21304000  T        2
Mg       8.02500000       4.63323591      23.21304000  T        2
Mg      11.23500000       4.63323591      23.21304000  T        2
Mg       3.21000000       7.41317746      23.21304000  T        2
Mg       6.42000000       7.41317746      23.21304000  T        2
Mg       9.63000000       7.41317746      23.21304000  T        2
Mg      12.84000000       7.41317746      23.21304000  T        2
Mg       4.81500000      10.19311900      23.21304000  T        2
Mg       8.02500000      10.19311900      23.21304000  T        2
Mg      11.23500000      10.19311900      23.21304000  T        2
Mg      14.44500000      10.19311900      23.21304000  T        2
Mg       0.00000000       0.00000000      25.81956000  T        1
Mg       3.21000000       0.00000000      25.81956000  T        1
Mg       6.42000000       0.00000000      25.81956000  T        1
Mg       9.63000000       0.00000000      25.81956000  T        1
Mg       1.60500000       2.77994155      25.81956000  T        1
Mg       4.81500000       2.77994155      25.81956000  T        1
Mg       8.02500000       2.77994155      25.81956000  T        1
Mg      11.23500000       2.77994155      25.81956000  T        1
Mg       3.21000000       5.55988309      25.81956000  T        1
Mg       6.42000000       5.55988309      25.81956000  T        1
Mg       9.63000000       5.55988309      25.81956000  T        1
Mg      12.84000000       5.55988309      25.81956000  T        1
Mg       4.81500000       8.33982464      25.81956000  T        1
Mg       8.02500000       8.33982464      25.81956000  T        1
Mg      11.23500000       8.33982464      25.81956000  T        1
Mg      14.44500000       8.33982464      25.81956000  T        1
O        8.82750000       6.94985387      27.41956000  T        0
65
Lattice="12.84 0.0 0.0 6.42 11.11976618459219 0.0 0.0 0.0 43.819559999999996" Properties=species:S:1:pos:R:3:move_mask:L:1:tags:I:1 surface_element=Mg miller="_JSON [0, 0, 0, 1]" slab_size="_JSON [4, 4, 4]" vacuum_angstrom=18.0 fixed_layers=2 fixed_atom_indices="_JSON [0, 1, 2, 3, 4, 5, 6, 7, 8, 9, 10, 11, 12, 13, 14, 15, 16, 17, 18, 19, 20, 21, 22, 23, 24, 25, 26, 27, 28, 29, 30, 31]" system_name=mg0001_o adsorbate=O site=bridge orientation=atom height_angstrom=2.0 structure_id=60f0992b680be0cb pbc="T T T"
Mg       0.00000000       1.85329436      18.00000000  F        4
Mg       3.21000000       1.85329436      18.00000000  F        4
Mg       6.42000000       1.85329436      18.00000000  F        4
Mg       9.63000000       1.85329436      18.00000000  F        4
Mg       1.60500000       4.63323591      18.00000000  F        4
Mg       4.81500000       4.63323591      18.00000000  F        4
Mg       8.02500000       4.63323591      18.00000000  F        4
Mg      11.23500000       4.63323591      18.00000000  F        4
Mg       3.21000000       7.41317746      18.00000000  F        4
Mg       6.42000000       7.41317746      18.00000000  F        4
Mg       9.63000000       7.41317746      18.00000000  F        4
Mg      12.84000000       7.41317746      18.00000000  F        4
Mg       4.81500000      10.19311900      18.00000000  F        4
Mg       8.02500000      10.19311900      18.00000000  F        4
Mg      11.23500000      10.19311900      18.00000000  F        4
Mg      14.44500000      10.19311900      18.00000000  F        4
Mg       0.00000000       0.00000000      20.60652000  F        3
Mg       3.21000000       0.00000000      20.60652000  F        3
Mg       6.42000000       0.00000000      20.60652000  F        3
Mg       9.63000000       0.00000000      20.60652000  F        3
Mg       1.60500000       2.77994155      20.60652000  F        3
Mg       4.81500000       2.77994155      20.60652000  F        3
Mg       8.02500000       2.77994155      20.60652000  F        3
Mg      11.23500000       2.77994155      20.60652000  F        3
Mg       3.21000000       5.55988309      20.60652000  F        3
Mg       6.42000000       5.55988309      20.60652000  F        3
Mg       9.63000000       5.55988309      20.60652000  F        3
Mg      12.84000000       5.55988309      20.60652000  F        3
Mg       4.81500000       8.33982464      20.60652000  F        3
Mg       8.02500000       8.33982464      20.60652000  F        3
Mg      11.23500000       8.33982464      20.60652000  F        3
Mg      14.44500000       8.33982464      20.60652000  F        3
Mg       0.00000000       1.85329436      23.21304000  T        2
Mg       3.21000000       1.85329436      23.21304000  T        2
Mg       6.42000000       1.85329436      23.21304000  T        2
Mg       9.63000000       1.85329436      23.21304000  T        2
Mg       1.60500000       4.63323591      23.21304000  T        2
Mg       4.81500000       4.63323591      23.21304000  T        2
Mg       8.02500000       4.63323591      23.21304000  T        2
Mg      11.23500000       4.63323591      23.21304000  T        2
Mg       3.21000000       7.41317746      23.21304000  T        2
Mg       6.42000000       7.41317746      23.21304000  T        2
Mg       9.63000000       7.41317746      23.21304000  T        2
Mg      12.84000000       7.41317746      23.21304000  T        2
Mg       4.81500000      10.19311900      23.21304000  T        2
Mg       8.02500000      10.19311900      23.21304000  T        2
Mg      11.23500000      10.19311900      23.21304000  T        2
Mg      14.44500000      10.19311900      23.21304000  T        2
Mg       0.00000000       0.00000000      25.81956000  T        1
Mg       3.21000000       0.00000000      25.81956000  T        1
Mg       6.42000000       0.00000000      25.81956000  T        1
Mg       9.63000000       0.00000000      25.81956000  T        1
Mg       1.60500000       2.77994155      25.81956000  T        1
Mg       4.81500000       2.77994155      25.81956000  T        1
Mg       8.02500000       2.77994155      25.81956000  T        1
Mg      11.23500000       2.77994155      25.81956000  T        1
Mg       3.21000000       5.55988309      25.81956000  T        1
Mg       6.42000000       5.55988309      25.81956000  T        1
Mg       9.63000000       5.55988309      25.81956000  T        1
Mg      12.84000000       5.55988309      25.81956000  T        1
Mg       4.81500000       8.33982464      25.81956000  T        1
Mg       8.02500000       8.33982464      25.81956000  T        1
Mg      11.23500000       8.33982464      25.81956000  T        1
Mg      14.44500000       8.33982464      25.81956000  T        1
O        8.82750000       6.94985387      27.81956000  T        0
65
Lattice="12.84 0.0 0.0 6.42 11.11976618459219 0.0 0.0 0.0 43.819559999999996" Properties=species:S:1:pos:R:3:move_mask:L:1:tags:I:1 surface_element=Mg miller="_JSON [0, 0, 0, 1]" slab_size="_JSON [4, 4, 4]" vacuum_angstrom=18.0 fixed_layers=2 fixed_atom_indices="_JSON [0, 1, 2, 3, 4, 5, 6, 7, 8, 9, 10, 11, 12, 13, 14, 15, 16, 17, 18, 19, 20, 21, 22, 23, 24, 25, 26, 27, 28, 29, 30, 31]" system_name=mg0001_o adsorbate=O site=bridge orientation=atom height_angstrom=2.4 structure_id=c91a54a9cfb138cd pbc="T T T"
Mg       0.00000000       1.85329436      18.00000000  F        4
Mg       3.21000000       1.85329436      18.00000000  F        4
Mg       6.42000000       1.85329436      18.00000000  F        4
Mg       9.63000000       1.85329436      18.00000000  F        4
Mg       1.60500000       4.63323591      18.00000000  F        4
Mg       4.81500000       4.63323591      18.00000000  F        4
Mg       8.02500000       4.63323591      18.00000000  F        4
Mg      11.23500000       4.63323591      18.00000000  F        4
Mg       3.21000000       7.41317746      18.00000000  F        4
Mg       6.42000000       7.41317746      18.00000000  F        4
Mg       9.63000000       7.41317746      18.00000000  F        4
Mg      12.84000000       7.41317746      18.00000000  F        4
Mg       4.81500000      10.19311900      18.00000000  F        4
Mg       8.02500000      10.19311900      18.00000000  F        4
Mg      11.23500000      10.19311900      18.00000000  F        4
Mg      14.44500000      10.19311900      18.00000000  F        4
Mg       0.00000000       0.00000000      20.60652000  F        3
Mg       3.21000000       0.00000000      20.60652000  F        3
Mg       6.42000000       0.00000000      20.60652000  F        3
Mg       9.63000000       0.00000000      20.60652000  F        3
Mg       1.60500000       2.77994155      20.60652000  F        3
Mg       4.81500000       2.77994155      20.60652000  F        3
Mg       8.02500000       2.77994155      20.60652000  F        3
Mg      11.23500000       2.77994155      20.60652000  F        3
Mg       3.21000000       5.55988309      20.60652000  F        3
Mg       6.42000000       5.55988309      20.60652000  F        3
Mg       9.63000000       5.55988309      20.60652000  F        3
Mg      12.84000000       5.55988309      20.60652000  F        3
Mg       4.81500000       8.33982464      20.60652000  F        3
Mg       8.02500000       8.33982464      20.60652000  F        3
Mg      11.23500000       8.33982464      20.60652000  F        3
Mg      14.44500000       8.33982464      20.60652000  F        3
Mg       0.00000000       1.85329436      23.21304000  T        2
Mg       3.21000000       1.85329436      23.21304000  T        2
Mg       6.42000000       1.85329436      23.21304000  T        2
Mg       9.63000000       1.85329436      23.21304000  T        2
Mg       1.60500000       4.63323591      23.21304000  T        2
Mg       4.81500000       4.63323591      23.21304000  T        2
Mg       8.02500000       4.63323591      23.21304000  T        2
Mg      11.23500000       4.63323591      23.21304000  T        2
Mg       3.21000000       7.41317746      23.21304000  T        2
Mg       6.42000000       7.41317746      23.21304000  T        2
Mg       9.63000000       7.41317746      23.21304000  T        2
Mg      12.84000000       7.41317746      23.21304000  T        2
Mg       4.81500000      10.19311900      23.21304000  T        2
Mg       8.02500000      10.19311900      23.21304000  T        2
Mg      11.23500000      10.19311900      23.21304000  T        2
Mg      14.44500000      10.19311900      23.21304000  T        2
Mg       0.00000000       0.00000000      25.81956000  T        1
Mg       3.21000000       0.00000000      25.81956000  T        1
Mg       6.42000000       0.00000000      25.81956000  T        1
Mg       9.63000000       0.00000000      25.81956000  T        1
Mg       1.60500000       2.77994155      25.81956000  T        1
Mg       4.81500000       2.77994155      25.81956000  T        1
Mg       8.02500000       2.77994155      25.81956000  T        1
Mg      11.23500000       2.77994155      25.81956000  T        1
Mg       3.21000000       5.55988309      25.81956000  T        1
Mg       6.42000000       5.55988309      25.81956000  T        1
Mg       9.63000000       5.55988309      25.81956000  T        1
Mg      12.84000000       5.55988309      25.81956000  T        1
Mg       4.81500000       8.33982464      25.81956000  T        1
Mg       8.02500000       8.33982464      25.81956000  T        1
Mg      11.23500000       8.33982464      25.81956000  T        1
Mg      14.44500000       8.33982464      25.81956000  T        1
O        8.82750000       6.94985387      28.21956000  T        0
65
Lattice="12.84 0.0 0.0 6.42 11.11976618459219 0.0 0.0 0.0 43.819559999999996" Properties=species:S:1:pos:R:3:move_mask:L:1:tags:I:1 surface_element=Mg miller="_JSON [0, 0, 0, 1]" slab_size="_JSON [4, 4, 4]" vacuum_angstrom=18.0 fixed_layers=2 fixed_atom_indices="_JSON [0, 1, 2, 3, 4, 5, 6, 7, 8, 9, 10, 11, 12, 13, 14, 15, 16, 17, 18, 19, 20, 21, 22, 23, 24, 25, 26, 27, 28, 29, 30, 31]" system_name=mg0001_o adsorbate=O site=fcc orientation=atom height_angstrom=1.6 structure_id=7b9f993f2bcefec9 pbc="T T T"
Mg       0.00000000       1.85329436      18.00000000  F        4
Mg       3.21000000       1.85329436      18.00000000  F        4
Mg       6.42000000       1.85329436      18.00000000  F        4
Mg       9.63000000       1.85329436      18.00000000  F        4
Mg       1.60500000       4.63323591      18.00000000  F        4
Mg       4.81500000       4.63323591      18.00000000  F        4
Mg       8.02500000       4.63323591      18.00000000  F        4
Mg      11.23500000       4.63323591      18.00000000  F        4
Mg       3.21000000       7.41317746      18.00000000  F        4
Mg       6.42000000       7.41317746      18.00000000  F        4
Mg       9.63000000       7.41317746      18.00000000  F        4
Mg      12.84000000       7.41317746      18.00000000  F        4
Mg       4.81500000      10.19311900      18.00000000  F        4
Mg       8.02500000      10.19311900      18.00000000  F        4
Mg      11.23500000      10.19311900      18.00000000  F        4
Mg      14.44500000      10.19311900      18.00000000  F        4
Mg       0.00000000       0.00000000      20.60652000  F        3
Mg       3.21000000       0.00000000      20.60652000  F        3
Mg       6.42000000       0.00000000      20.60652000  F        3
Mg       9.63000000       0.00000000      20.60652000  F        3
Mg       1.60500000       2.77994155      20.60652000  F        3
Mg       4.81500000       2.77994155      20.60652000  F        3
Mg       8.02500000       2.77994155      20.60652000  F        3
Mg      11.23500000       2.77994155      20.60652000  F        3
Mg       3.21000000       5.55988309      20.60652000  F        3
Mg       6.42000000       5.55988309      20.60652000  F        3
Mg       9.63000000       5.55988309      20.60652000  F        3
Mg      12.84000000       5.55988309      20.60652000  F        3
Mg       4.81500000       8.33982464      20.60652000  F        3
Mg       8.02500000       8.33982464      20.60652000  F        3
Mg      11.23500000       8.33982464      20.60652000  F        3
Mg      14.44500000       8.33982464      20.60652000  F        3
Mg       0.00000000       1.85329436      23.21304000  T        2
Mg       3.21000000       1.85329436      23.21304000  T        2
Mg       6.42000000       1.85329436      23.21304000  T        2
Mg       9.63000000       1.85329436      23.21304000  T        2
Mg       1.60500000       4.63323591      23.21304000  T        2
Mg       4.81500000       4.63323591      23.21304000  T        2
Mg       8.02500000       4.63323591      23.21304000  T        2
Mg      11.23500000       4.63323591      23.21304000  T        2
Mg       3.21000000       7.41317746      23.21304000  T        2
Mg       6.42000000       7.41317746      23.21304000  T        2
Mg       9.63000000       7.41317746      23.21304000  T        2
Mg      12.84000000       7.41317746      23.21304000  T        2
Mg       4.81500000      10.19311900      23.21304000  T        2
Mg       8.02500000      10.19311900      23.21304000  T        2
Mg      11.23500000      10.19311900      23.21304000  T        2
Mg      14.44500000      10.19311900      23.21304000  T        2
Mg       0.00000000       0.00000000      25.81956000  T        1
Mg       3.21000000       0.00000000      25.81956000  T        1
Mg       6.42000000       0.00000000      25.81956000  T        1
Mg       9.63000000       0.00000000      25.81956000  T        1
Mg       1.60500000       2.77994155      25.81956000  T        1
Mg       4.81500000       2.77994155      25.81956000  T        1
Mg       8.02500000       2.77994155      25.81956000  T        1
Mg      11.23500000       2.77994155      25.81956000  T        1
Mg       3.21000000       5.55988309      25.81956000  T        1
Mg       6.42000000       5.55988309      25.81956000  T        1
Mg       9.63000000       5.55988309      25.81956000  T        1
Mg      12.84000000       5.55988309      25.81956000  T        1
Mg       4.81500000       8.33982464      25.81956000  T        1
Mg       8.02500000       8.33982464      25.81956000  T        1
Mg      11.23500000       8.33982464      25.81956000  T        1
Mg      14.44500000       8.33982464      25.81956000  T        1
O        8.02500000       4.63323591      27.41956000  T        0
65
Lattice="12.84 0.0 0.0 6.42 11.11976618459219 0.0 0.0 0.0 43.819559999999996" Properties=species:S:1:pos:R:3:move_mask:L:1:tags:I:1 surface_element=Mg miller="_JSON [0, 0, 0, 1]" slab_size="_JSON [4, 4, 4]" vacuum_angstrom=18.0 fixed_layers=2 fixed_atom_indices="_JSON [0, 1, 2, 3, 4, 5, 6, 7, 8, 9, 10, 11, 12, 13, 14, 15, 16, 17, 18, 19, 20, 21, 22, 23, 24, 25, 26, 27, 28, 29, 30, 31]" system_name=mg0001_o adsorbate=O site=fcc orientation=atom height_angstrom=2.0 structure_id=8b1acf85e5e7a650 pbc="T T T"
Mg       0.00000000       1.85329436      18.00000000  F        4
Mg       3.21000000       1.85329436      18.00000000  F        4
Mg       6.42000000       1.85329436      18.00000000  F        4
Mg       9.63000000       1.85329436      18.00000000  F        4
Mg       1.60500000       4.63323591      18.00000000  F        4
Mg       4.81500000       4.63323591      18.00000000  F        4
Mg       8.02500000       4.63323591      18.00000000  F        4
Mg      11.23500000       4.63323591      18.00000000  F        4
Mg       3.21000000       7.41317746      18.00000000  F        4
Mg       6.42000000       7.41317746      18.00000000  F        4
Mg       9.63000000       7.41317746      18.00000000  F        4
Mg      12.84000000       7.41317746      18.00000000  F        4
Mg       4.81500000      10.19311900      18.00000000  F        4
Mg       8.02500000      10.19311900      18.00000000  F        4
Mg      11.23500000      10.19311900      18.00000000  F        4
Mg      14.44500000      10.19311900      18.00000000  F        4
Mg       0.00000000       0.00000000      20.60652000  F        3
Mg       3.21000000       0.00000000      20.60652000  F        3
Mg       6.42000000       0.00000000      20.60652000  F        3
Mg       9.63000000       0.00000000      20.60652000  F        3
Mg       1.60500000       2.77994155      20.60652000  F        3
Mg       4.81500000       2.77994155      20.60652000  F        3
Mg       8.02500000       2.77994155      20.60652000  F        3
Mg      11.23500000       2.77994155      20.60652000  F        3
Mg       3.21000000       5.55988309      20.60652000  F        3
Mg       6.42000000       5.55988309      20.60652000  F        3
Mg       9.63000000       5.55988309      20.60652000  F        3
Mg      12.84000000       5.55988309      20.60652000  F        3
Mg       4.81500000       8.33982464      20.60652000  F        3
Mg       8.02500000       8.33982464      20.60652000  F        3
Mg      11.23500000       8.33982464      20.60652000  F        3
Mg      14.44500000       8.33982464      20.60652000  F        3
Mg       0.00000000       1.85329436      23.21304000  T        2
Mg       3.21000000       1.85329436      23.21304000  T        2
Mg       6.42000000       1.85329436      23.21304000  T        2
Mg       9.63000000       1.85329436      23.21304000  T        2
Mg       1.60500000       4.63323591      23.21304000  T        2
Mg       4.81500000       4.63323591      23.21304000  T        2
Mg       8.02500000       4.63323591      23.21304000  T        2
Mg      11.23500000       4.63323591      23.21304000  T        2
Mg       3.21000000       7.41317746      23.21304000  T        2
Mg       6.42000000       7.41317746      23.21304000  T        2
Mg       9.63000000       7.41317746      23.21304000  T        2
Mg      12.84000000       7.41317746      23.21304000  T        2
Mg       4.81500000      10.19311900      23.21304000  T        2
Mg       8.02500000      10.19311900      23.21304000  T        2
Mg      11.23500000      10.19311900      23.21304000  T        2
Mg      14.44500000      10.19311900      23.21304000  T        2
Mg       0.00000000       0.00000000      25.81956000  T        1
Mg       3.21000000       0.00000000      25.81956000  T        1
Mg       6.42000000       0.00000000      25.81956000  T        1
Mg       9.63000000       0.00000000      25.81956000  T        1
Mg       1.60500000       2.77994155      25.81956000  T        1
Mg       4.81500000       2.77994155      25.81956000  T        1
Mg       8.02500000       2.77994155      25.81956000  T        1
Mg      11.23500000       2.77994155      25.81956000  T        1
Mg       3.21000000       5.55988309      25.81956000  T        1
Mg       6.42000000       5.55988309      25.81956000  T        1
Mg       9.63000000       5.55988309      25.81956000  T        1
Mg      12.84000000       5.55988309      25.81956000  T        1
Mg       4.81500000       8.33982464      25.81956000  T        1
Mg       8.02500000       8.33982464      25.81956000  T        1
Mg      11.23500000       8.33982464      25.81956000  T        1
Mg      14.44500000       8.33982464      25.81956000  T        1
O        8.02500000       4.63323591      27.81956000  T        0
65
Lattice="12.84 0.0 0.0 6.42 11.11976618459219 0.0 0.0 0.0 43.819559999999996" Properties=species:S:1:pos:R:3:move_mask:L:1:tags:I:1 surface_element=Mg miller="_JSON [0, 0, 0, 1]" slab_size="_JSON [4, 4, 4]" vacuum_angstrom=18.0 fixed_layers=2 fixed_atom_indices="_JSON [0, 1, 2, 3, 4, 5, 6, 7, 8, 9, 10, 11, 12, 13, 14, 15, 16, 17, 18, 19, 20, 21, 22, 23, 24, 25, 26, 27, 28, 29, 30, 31]" system_name=mg0001_o adsorbate=O site=fcc orientation=atom height_angstrom=2.4 structure_id=f34254a14fb24f63 pbc="T T T"
Mg       0.00000000       1.85329436      18.00000000  F        4
Mg       3.21000000       1.85329436      18.00000000  F        4
Mg       6.42000000       1.85329436      18.00000000  F        4
Mg       9.63000000       1.85329436      18.00000000  F        4
Mg       1.60500000       4.63323591      18.00000000  F        4
Mg       4.81500000       4.63323591      18.00000000  F        4
Mg       8.02500000       4.63323591      18.00000000  F        4
Mg      11.23500000       4.63323591      18.00000000  F        4
Mg       3.21000000       7.41317746      18.00000000  F        4
Mg       6.42000000       7.41317746      18.00000000  F        4
Mg       9.63000000       7.41317746      18.00000000  F        4
Mg      12.84000000       7.41317746      18.00000000  F        4
Mg       4.81500000      10.19311900      18.00000000  F        4
Mg       8.02500000      10.19311900      18.00000000  F        4
Mg      11.23500000      10.19311900      18.00000000  F        4
Mg      14.44500000      10.19311900      18.00000000  F        4
Mg       0.00000000       0.00000000      20.60652000  F        3
Mg       3.21000000       0.00000000      20.60652000  F        3
Mg       6.42000000       0.00000000      20.60652000  F        3
Mg       9.63000000       0.00000000      20.60652000  F        3
Mg       1.60500000       2.77994155      20.60652000  F        3
Mg       4.81500000       2.77994155      20.60652000  F        3
Mg       8.02500000       2.77994155      20.60652000  F        3
Mg      11.23500000       2.77994155      20.60652000  F        3
Mg       3.21000000       5.55988309      20.60652000  F        3
Mg       6.42000000       5.55988309      20.60652000  F        3
Mg       9.63000000       5.55988309      20.60652000  F        3
Mg      12.84000000       5.55988309      20.60652000  F        3
Mg       4.81500000       8.33982464      20.60652000  F        3
Mg       8.02500000       8.33982464      20.60652000  F        3
Mg      11.23500000       8.33982464      20.60652000  F        3
Mg      14.44500000       8.33982464      20.60652000  F        3
Mg       0.00000000       1.85329436      23.21304000  T        2
Mg       3.21000000       1.85329436      23.21304000  T        2
Mg       6.42000000       1.85329436      23.21304000  T        2
Mg       9.63000000       1.85329436      23.21304000  T        2
Mg       1.60500000       4.63323591      23.21304000  T        2
Mg       4.81500000       4.63323591      23.21304000  T        2
Mg       8.02500000       4.63323591      23.21304000  T        2
Mg      11.23500000       4.63323591      23.21304000  T        2
Mg       3.21000000       7.41317746      23.21304000  T        2
Mg       6.42000000       7.41317746      23.21304000  T        2
Mg       9.63000000       7.41317746      23.21304000  T        2
Mg      12.84000000       7.41317746      23.21304000  T        2
Mg       4.81500000      10.19311900      23.21304000  T        2
Mg       8.02500000      10.19311900      23.21304000  T        2
Mg      11.23500000      10.19311900      23.21304000  T        2
Mg      14.44500000      10.19311900      23.21304000  T        2
Mg       0.00000000       0.00000000      25.81956000  T        1
Mg       3.21000000       0.00000000      25.81956000  T        1
Mg       6.42000000       0.00000000      25.81956000  T        1
Mg       9.63000000       0.00000000      25.81956000  T        1
Mg       1.60500000       2.77994155      25.81956000  T        1
Mg       4.81500000       2.77994155      25.81956000  T        1
Mg       8.02500000       2.77994155      25.81956000  T        1
Mg      11.23500000       2.77994155      25.81956000  T        1
Mg       3.21000000       5.55988309      25.81956000  T        1
Mg       6.42000000       5.55988309      25.81956000  T        1
Mg       9.63000000       5.55988309      25.81956000  T        1
Mg      12.84000000       5.55988309      25.81956000  T        1
Mg       4.81500000       8.33982464      25.81956000  T        1
Mg       8.02500000       8.33982464      25.81956000  T        1
Mg      11.23500000       8.33982464      25.81956000  T        1
Mg      14.44500000       8.33982464      25.81956000  T        1
O        8.02500000       4.63323591      28.21956000  T        0
65
Lattice="12.84 0.0 0.0 6.42 11.11976618459219 0.0 0.0 0.0 43.819559999999996" Properties=species:S:1:pos:R:3:move_mask:L:1:tags:I:1 surface_element=Mg miller="_JSON [0, 0, 0, 1]" slab_size="_JSON [4, 4, 4]" vacuum_angstrom=18.0 fixed_layers=2 fixed_atom_indices="_JSON [0, 1, 2, 3, 4, 5, 6, 7, 8, 9, 10, 11, 12, 13, 14, 15, 16, 17, 18, 19, 20, 21, 22, 23, 24, 25, 26, 27, 28, 29, 30, 31]" system_name=mg0001_o adsorbate=O site=hcp orientation=atom height_angstrom=1.6 structure_id=b031a6e51b9f387e pbc="T T T"
Mg       0.00000000       1.85329436      18.00000000  F        4
Mg       3.21000000       1.85329436      18.00000000  F        4
Mg       6.42000000       1.85329436      18.00000000  F        4
Mg       9.63000000       1.85329436      18.00000000  F        4
Mg       1.60500000       4.63323591      18.00000000  F        4
Mg       4.81500000       4.63323591      18.00000000  F        4
Mg       8.02500000       4.63323591      18.00000000  F        4
Mg      11.23500000       4.63323591      18.00000000  F        4
Mg       3.21000000       7.41317746      18.00000000  F        4
Mg       6.42000000       7.41317746      18.00000000  F        4
Mg       9.63000000       7.41317746      18.00000000  F        4
Mg      12.84000000       7.41317746      18.00000000  F        4
Mg       4.81500000      10.19311900      18.00000000  F        4
Mg       8.02500000      10.19311900      18.00000000  F        4
Mg      11.23500000      10.19311900      18.00000000  F        4
Mg      14.44500000      10.19311900      18.00000000  F        4
Mg       0.00000000       0.00000000      20.60652000  F        3
Mg       3.21000000       0.00000000      20.60652000  F        3
Mg       6.42000000       0.00000000      20.60652000  F        3
Mg       9.63000000       0.00000000      20.60652000  F        3
Mg       1.60500000       2.77994155      20.60652000  F        3
Mg       4.81500000       2.77994155      20.60652000  F        3
Mg       8.02500000       2.77994155      20.60652000  F        3
Mg      11.23500000       2.77994155      20.60652000  F        3
Mg       3.21000000       5.55988309      20.60652000  F        3
Mg       6.42000000       5.55988309      20.60652000  F        3
Mg       9.63000000       5.55988309      20.60652000  F        3
Mg      12.84000000       5.55988309      20.60652000  F        3
Mg       4.81500000       8.33982464      20.60652000  F        3
Mg       8.02500000       8.33982464      20.60652000  F        3
Mg      11.23500000       8.33982464      20.60652000  F        3
Mg      14.44500000       8.33982464      20.60652000  F        3
Mg       0.00000000       1.85329436      23.21304000  T        2
Mg       3.21000000       1.85329436      23.21304000  T        2
Mg       6.42000000       1.85329436      23.21304000  T        2
Mg       9.63000000       1.85329436      23.21304000  T        2
Mg       1.60500000       4.63323591      23.21304000  T        2
Mg       4.81500000       4.63323591      23.21304000  T        2
Mg       8.02500000       4.63323591      23.21304000  T        2
Mg      11.23500000       4.63323591      23.21304000  T        2
Mg       3.21000000       7.41317746      23.21304000  T        2
Mg       6.42000000       7.41317746      23.21304000  T        2
Mg       9.63000000       7.41317746      23.21304000  T        2
Mg      12.84000000       7.41317746      23.21304000  T        2
Mg       4.81500000      10.19311900      23.21304000  T        2
Mg       8.02500000      10.19311900      23.21304000  T        2
Mg      11.23500000      10.19311900      23.21304000  T        2
Mg      14.44500000      10.19311900      23.21304000  T        2
Mg       0.00000000       0.00000000      25.81956000  T        1
Mg       3.21000000       0.00000000      25.81956000  T        1
Mg       6.42000000       0.00000000      25.81956000  T        1
Mg       9.63000000       0.00000000      25.81956000  T        1
Mg       1.60500000       2.77994155      25.81956000  T        1
Mg       4.81500000       2.77994155      25.81956000  T        1
Mg       8.02500000       2.77994155      25.81956000  T        1
Mg      11.23500000       2.77994155      25.81956000  T        1
Mg       3.21000000       5.55988309      25.81956000  T        1
Mg       6.42000000       5.55988309      25.81956000  T        1
Mg       9.63000000       5.55988309      25.81956000  T        1
Mg      12.84000000       5.55988309      25.81956000  T        1
Mg       4.81500000       8.33982464      25.81956000  T        1
Mg       8.02500000       8.33982464      25.81956000  T        1
Mg      11.23500000       8.33982464      25.81956000  T        1
Mg      14.44500000       8.33982464      25.81956000  T        1
O        6.95500000       4.63323591      27.41956000  T        0
65
Lattice="12.84 0.0 0.0 6.42 11.11976618459219 0.0 0.0 0.0 43.819559999999996" Properties=species:S:1:pos:R:3:move_mask:L:1:tags:I:1 surface_element=Mg miller="_JSON [0, 0, 0, 1]" slab_size="_JSON [4, 4, 4]" vacuum_angstrom=18.0 fixed_layers=2 fixed_atom_indices="_JSON [0, 1, 2, 3, 4, 5, 6, 7, 8, 9, 10, 11, 12, 13, 14, 15, 16, 17, 18, 19, 20, 21, 22, 23, 24, 25, 26, 27, 28, 29, 30, 31]" system_name=mg0001_o adsorbate=O site=hcp orientation=atom height_angstrom=2.0 structure_id=8b8acc0f2a107268 pbc="T T T"
Mg       0.00000000       1.85329436      18.00000000  F        4
Mg       3.21000000       1.85329436      18.00000000  F        4
Mg       6.42000000       1.85329436      18.00000000  F        4
Mg       9.63000000       1.85329436      18.00000000  F        4
Mg       1.60500000       4.63323591      18.00000000  F        4
Mg       4.81500000       4.63323591      18.00000000  F        4
Mg       8.02500000       4.63323591      18.00000000  F        4
Mg      11.23500000       4.63323591      18.00000000  F        4
Mg       3.21000000       7.41317746      18.00000000  F        4
Mg       6.42000000       7.41317746      18.00000000  F        4
Mg       9.63000000       7.41317746      18.00000000  F        4
Mg      12.84000000       7.41317746      18.00000000  F        4
Mg       4.81500000      10.19311900      18.00000000  F        4
Mg       8.02500000      10.19311900      18.00000000  F        4
Mg      11.23500000      10.19311900      18.00000000  F        4
Mg      14.44500000      10.19311900      18.00000000  F        4
Mg       0.00000000       0.00000000      20.60652000  F        3
Mg       3.21000000       0.00000000      20.60652000  F        3
Mg       6.42000000       0.00000000      20.60652000  F        3
Mg       9.63000000       0.00000000      20.60652000  F        3
Mg       1.60500000       2.77994155      20.60652000  F        3
Mg       4.81500000       2.77994155      20.60652000  F        3
Mg       8.02500000       2.77994155      20.60652000  F        3
Mg      11.23500000       2.77994155      20.60652000  F        3
Mg       3.21000000       5.55988309      20.60652000  F        3
Mg       6.42000000       5.55988309      20.60652000  F        3
Mg       9.63000000       5.55988309      20.60652000  F        3
Mg      12.84000000       5.55988309      20.60652000  F        3
Mg       4.81500000       8.33982464      20.60652000  F        3
Mg       8.02500000       8.33982464      20.60652000  F        3
Mg      11.23500000       8.33982464      20.60652000  F        3
Mg      14.44500000       8.33982464      20.60652000  F        3
Mg       0.00000000       1.85329436      23.21304000  T        2
Mg       3.21000000       1.85329436      23.21304000  T        2
Mg       6.42000000       1.85329436      23.21304000  T        2
Mg       9.63000000       1.85329436      23.21304000  T        2
Mg       1.60500000       4.63323591      23.21304000  T        2
Mg       4.81500000       4.63323591      23.21304000  T        2
Mg       8.02500000       4.63323591      23.21304000  T        2
Mg      11.23500000       4.63323591      23.21304000  T        2
Mg       3.21000000       7.41317746      23.21304000  T        2
Mg       6.42000000       7.41317746      23.21304000  T        2
Mg       9.63000000       7.41317746      23.21304000  T        2
Mg      12.84000000       7.41317746      23.21304000  T        2
Mg       4.81500000      10.19311900      23.21304000  T        2
Mg       8.02500000      10.19311900      23.21304000  T        2
Mg      11.23500000      10.19311900      23.21304000  T        2
Mg      14.44500000      10.19311900      23.21304000  T        2
Mg       0.00000000       0.00000000      25.81956000  T        1
Mg       3.21000000       0.00000000      25.81956000  T        1
Mg       6.42000000       0.00000000      25.81956000  T        1
Mg       9.63000000       0.00000000      25.81956000  T        1
Mg       1.60500000       2.77994155      25.81956000  T        1
Mg       4.81500000       2.77994155      25.81956000  T        1
Mg       8.02500000       2.77994155      25.81956000  T        1
Mg      11.23500000       2.77994155      25.81956000  T        1
Mg       3.21000000       5.55988309      25.81956000  T        1
Mg       6.42000000       5.55988309      25.81956000  T        1
Mg       9.63000000       5.55988309      25.81956000  T        1
Mg      12.84000000       5.55988309      25.81956000  T        1
Mg       4.81500000       8.33982464      25.81956000  T        1
Mg       8.02500000       8.33982464      25.81956000  T        1
Mg      11.23500000       8.33982464      25.81956000  T        1
Mg      14.44500000       8.33982464      25.81956000  T        1
O        6.95500000       4.63323591      27.81956000  T        0
65
Lattice="12.84 0.0 0.0 6.42 11.11976618459219 0.0 0.0 0.0 43.819559999999996" Properties=species:S:1:pos:R:3:move_mask:L:1:tags:I:1 surface_element=Mg miller="_JSON [0, 0, 0, 1]" slab_size="_JSON [4, 4, 4]" vacuum_angstrom=18.0 fixed_layers=2 fixed_atom_indices="_JSON [0, 1, 2, 3, 4, 5, 6, 7, 8, 9, 10, 11, 12, 13, 14, 15, 16, 17, 18, 19, 20, 21, 22, 23, 24, 25, 26, 27, 28, 29, 30, 31]" system_name=mg0001_o adsorbate=O site=hcp orientation=atom height_angstrom=2.4 structure_id=34ccd72467145eb5 pbc="T T T"
Mg       0.00000000       1.85329436      18.00000000  F        4
Mg       3.21000000       1.85329436      18.00000000  F        4
Mg       6.42000000       1.85329436      18.00000000  F        4
Mg       9.63000000       1.85329436      18.00000000  F        4
Mg       1.60500000       4.63323591      18.00000000  F        4
Mg       4.81500000       4.63323591      18.00000000  F        4
Mg       8.02500000       4.63323591      18.00000000  F        4
Mg      11.23500000       4.63323591      18.00000000  F        4
Mg       3.21000000       7.41317746      18.00000000  F        4
Mg       6.42000000       7.41317746      18.00000000  F        4
Mg       9.63000000       7.41317746      18.00000000  F        4
Mg      12.84000000       7.41317746      18.00000000  F        4
Mg       4.81500000      10.19311900      18.00000000  F        4
Mg       8.02500000      10.19311900      18.00000000  F        4
Mg      11.23500000      10.19311900      18.00000000  F        4
Mg      14.44500000      10.19311900      18.00000000  F        4
Mg       0.00000000       0.00000000      20.60652000  F        3
Mg       3.21000000       0.00000000      20.60652000  F        3
Mg       6.42000000       0.00000000      20.60652000  F        3
Mg       9.63000000       0.00000000      20.60652000  F        3
Mg       1.60500000       2.77994155      20.60652000  F        3
Mg       4.81500000       2.77994155      20.60652000  F        3
Mg       8.02500000       2.77994155      20.60652000  F        3
Mg      11.23500000       2.77994155      20.60652000  F        3
Mg       3.21000000       5.55988309      20.60652000  F        3
Mg       6.42000000       5.55988309      20.60652000  F        3
Mg       9.63000000       5.55988309      20.60652000  F        3
Mg      12.84000000       5.55988309      20.60652000  F        3
Mg       4.81500000       8.33982464      20.60652000  F        3
Mg       8.02500000       8.33982464      20.60652000  F        3
Mg      11.23500000       8.33982464      20.60652000  F        3
Mg      14.44500000       8.33982464      20.60652000  F        3
Mg       0.00000000       1.85329436      23.21304000  T        2
Mg       3.21000000       1.85329436      23.21304000  T        2
Mg       6.42000000       1.85329436      23.21304000  T        2
Mg       9.63000000       1.85329436      23.21304000  T        2
Mg       1.60500000       4.63323591      23.21304000  T        2
Mg       4.81500000       4.63323591      23.21304000  T        2
Mg       8.02500000       4.63323591      23.21304000  T        2
Mg      11.23500000       4.63323591      23.21304000  T        2
Mg       3.21000000       7.41317746      23.21304000  T        2
Mg       6.42000000       7.41317746      23.21304000  T        2
Mg       9.63000000       7.41317746      23.21304000  T        2
Mg      12.84000000       7.41317746      23.21304000  T        2
Mg       4.81500000      10.19311900      23.21304000  T        2
Mg       8.02500000      10.19311900      23.21304000  T        2
Mg      11.23500000      10.19311900      23.21304000  T        2
Mg      14.44500000      10.19311900      23.21304000  T        2
Mg       0.00000000       0.00000000      25.81956000  T        1
Mg       3.21000000       0.00000000      25.81956000  T        1
Mg       6.42000000       0.00000000      25.81956000  T        1
Mg       9.63000000       0.00000000      25.81956000  T        1
Mg       1.60500000       2.77994155      25.81956000  T        1
Mg       4.81500000       2.77994155      25.81956000  T        1
Mg       8.02500000       2.77994155      25.81956000  T        1
Mg      11.23500000       2.77994155      25.81956000  T        1
Mg       3.21000000       5.55988309      25.81956000  T        1
Mg       6.42000000       5.55988309      25.81956000  T        1
Mg       9.63000000       5.55988309      25.81956000  T        1
Mg      12.84000000       5.55988309      25.81956000  T        1
Mg       4.81500000       8.33982464      25.81956000  T        1
Mg       8.02500000       8.33982464      25.81956000  T        1
Mg      11.23500000       8.33982464      25.81956000  T        1
Mg      14.44500000       8.33982464      25.81956000  T        1
O        6.95500000       4.63323591      28.21956000  T        0
