28
Lattice="9.629999999999999 0.0 0.0 4.8149999999999995 8.339824638444142 0.0 0.0 0.0 33.21303999999999" Properties=species:S:1:pos:R:3:move_mask:L:1:tags:I:1 surface_element=Mg miller="_JSON [0, 0, 0, 1]" slab_size="_JSON [3, 3, 3]" vacuum_angstrom=14.0 fixed_layers=1 fixed_atom_indices="_JSON [0, 1, 2, 3, 4, 5, 6, 7, 8]" system_name=mg0001_o_pilot adsorbate=O site=top orientation=atom height_angstrom=1.6 structure_id=fb75a97fd775c76d pbc="T T T"
Mg       0.00000000       0.00000000      14.00000000  F        3
Mg       3.21000000       0.00000000      14.00000000  F        3
Mg       6.42000000       0.00000000      14.00000000  F        3
Mg       1.60500000       2.77994155      14.00000000  F        3
Mg       4.81500000       2.77994155      14.00000000  F        3
Mg       8.02500000       2.77994155      14.00000000  F        3
Mg       3.21000000       5.55988309      14.00000000  F        3
Mg       6.42000000       5.55988309      14.00000000  F        3
Mg       9.63000000       5.55988309      14.00000000  F        3
Mg      -0.00000000       1.85329436      16.60652000  T        2
Mg       3.21000000       1.85329436      16.60652000  T        2
Mg       6.42000000       1.85329436      16.60652000  T        2
Mg       1.60500000       4.63323591      16.60652000  T        2
Mg       4.81500000       4.63323591      16.60652000  T        2
Mg       8.02500000       4.63323591      16.60652000  T        2
Mg       3.21000000       7.41317746      16.60652000  T        2
Mg       6.42000000       7.41317746      16.60652000  T        2
Mg       9.63000000       7.41317746      16.60652000  T        2
Mg       0.00000000       0.00000000      19.21304000  T        1
Mg       3.21000000       0.00000000      19.21304000  T        1
Mg       6.42000000       0.00000000      19.21304000  T        1
Mg       1.60500000       2.77994155      19.21304000  T        1
Mg       4.81500000       2.77994155      19.21304000  T        1
Mg       8.02500000       2.77994155      19.21304000  T        1
Mg       3.21000000       5.55988309      19.21304000  T        1
Mg       6.42000000       5.55988309      19.21304000  T        1
Mg       9.63000000       5.55988309      19.21304000  T        1
O        0.00000000       0.00000000      20.81304000  T        0
28
Lattice="9.629999999999999 0.0 0.0 4.8149999999999995 8.339824638444142 0.0 0.0 0.0 33.21303999999999" Properties=species:S:1:pos:R:3:move_mask:L:1:tags:I:1 surface_element=Mg miller="_JSON [0, 0, 0, 1]" slab_size="_JSON [3, 3, 3]" vacuum_angstrom=14.0 fixed_layers=1 fixed_atom_indices="_JSON [0, 1, 2, 3, 4, 5, 6, 7, 8]" system_name=mg0001_o_pilot adsorbate=O site=top orientation=atom height_angstrom=2.0 structure_id=f67b4fe8525ec26c pbc="T T T"
Mg       0.00000000       0.00000000      14.00000000  F        3
Mg       3.21000000       0.00000000      14.00000000  F        3
Mg       6.42000000       0.00000000      14.00000000  F        3
Mg       1.60500000       2.77994155      14.00000000  F        3
Mg       4.81500000       2.77994155      14.00000000  F        3
Mg       8.02500000       2.77994155      14.00000000  F        3
Mg       3.21000000       5.55988309      14.00000000  F        3
Mg       6.42000000       5.55988309      14.00000000  F        3
Mg       9.63000000       5.55988309      14.00000000  F        3
Mg      -0.00000000       1.85329436      16.60652000  T        2
Mg       3.21000000       1.85329436      16.60652000  T        2
Mg       6.42000000       1.85329436      16.60652000  T        2
Mg       1.60500000       4.63323591      16.60652000  T        2
Mg       4.81500000       4.63323591      16.60652000  T        2
Mg       8.02500000       4.63323591      16.60652000  T        2
Mg       3.21000000       7.41317746      16.60652000  T        2
Mg       6.42000000       7.41317746      16.60652000  T        2
Mg       9.63000000       7.41317746      16.60652000  T        2
Mg       0.00000000       0.00000000      19.21304000  T        1
Mg       3.21000000       0.00000000      19.21304000  T        1
Mg       6.42000000       0.00000000      19.21304000  T        1
Mg       1.60500000       2.77994155      19.21304000  T        1
Mg       4.81500000       2.77994155      19.21304000  T        1
Mg       8.02500000       2.77994155      19.21304000  T        1
Mg       3.21000000       5.55988309      19.21304000  T        1
Mg       6.42000000       5.55988309      19.21304000  T        1
Mg       9.63000000       5.55988309      19.21304000  T        1
O        0.00000000       0.00000000      21.21304000  T        0
28
Lattice="9.629999999999999 0.0 0.0 4.8149999999999995 8.339824638444142 0.0 0.0 0.0 33.21303999999999" Properties=species:S:1:pos:R:3:move_mask:L:1:tags:I:1 surface_element=Mg miller="_JSON [0, 0, 0, 1]" slab_size="_JSON [3, 3, 3]" vacuum_angstrom=14.0 fixed_layers=1 fixed_atom_indices="_JSON [0, 1, 2, 3, 4, 5, 6, 7, 8]" system_name=mg0001_o_pilot adsorbate=O site=top orientation=atom height_angstrom=2.4 structure_id=1b6f66e847adf264 pbc="T T T"
Mg       0.00000000       0.00000000      14.00000000  F        3
Mg       3.21000000       0.00000000      14.00000000  F        3
Mg       6.42000000       0.00000000      14.00000000  F        3
Mg       1.60500000       2.77994155      14.00000000  F        3
Mg       4.81500000       2.77994155      14.00000000  F        3
Mg       8.02500000       2.77994155      14.00000000  F        3
Mg       3.21000000       5.55988309      14.00000000  F        3
Mg       6.42000000       5.55988309      14.00000000  F        3
Mg       9.63000000       5.55988309      14.00000000  F        3
Mg      -0.00000000       1.85329436      16.60652000  T        2
Mg       3.21000000       1.85329436      16.60652000  T        2
Mg       6.42000000       1.85329436      16.60652000  T        2
Mg       1.60500000       4.63323591      16.60652000  T        2
Mg       4.81500000       4.63323591      16.60652000  T        2
Mg       8.02500000       4.63323591      16.60652000  T        2
Mg       3.21000000       7.41317746      16.60652000  T        2
Mg       6.42000000       7.41317746      16.60652000  T        2
Mg       9.63000000       7.41317746      16.60652000  T        2
Mg       0.00000000       0.00000000      19.21304000  T        1
Mg       3.21000000       0.00000000      19.21304000  T        1
Mg       6.42000000       0.00000000      19.21304000  T        1
Mg       1.60500000       2.77994155      19.21304000  T        1
Mg       4.81500000       2.77994155      19.21304000  T        1
Mg       8.02500000       2.77994155      19.21304000  T        1
Mg       3.21000000       5.55988309      19.21304000  T        1
Mg       6.42000000       5.55988309      19.21304000  T        1
Mg       9.63000000       5.55988309      19.21304000  T        1
O        0.00000000       0.00000000      21.61304000  T        0
28
Lattice="9.629999999999999 0.0 0.0 4.8149999999999995 8.339824638444142 0.0 0.0 0.0 33.21303999999999" Properties=species:S:1:pos:R:3:move_mask:L:1:tags:I:1 surface_element=Mg miller="_JSON [0, 0, 0, 1]" slab_size="_JSON [3, 3, 3]" vacuum_angstrom=14.0 fixed_layers=1 fixed_atom_indices="_JSON [0, 1, 2, 3, 4, 5, 6, 7, 8]" system_name=mg0001_o_pilot adsorbate=O site=bridge orientation=atom height_angstrom=1.6 structure_id=0173b205f6a5e0d7 pbc="T T T"
Mg       0.00000000       0.00000000      14.00000000  F        3
Mg       3.21000000       0.00000000      14.00000000  F        3
Mg       6.42000000       0.00000000      14.00000000  F        3
Mg       1.60500000       2.77994155      14.00000000  F        3
Mg       4.81500000       2.77994155      14.00000000  F        3
Mg       8.02500000       2.77994155      14.00000000  F        3
Mg       3.21000000       5.55988309      14.00000000  F        3
Mg       6.42000000       5.55988309      14.00000000  F        3
Mg       9.63000000       5.55988309      14.00000000  F        3
Mg      -0.00000000       1.85329436      16.60652000  T        2
Mg       3.21000000       1.85329436      16.60652000  T        2
Mg       6.42000000       1.85329436      16.60652000  T        2
Mg       1.60500000       4.63323591      16.60652000  T        2
Mg       4.81500000       4.63323591      16.60652000  T        2
Mg       8.02500000       4.63323591      16.60652000  T        2
Mg       3.21000000       7.41317746      16.60652000  T        2
Mg       6.42000000       7.41317746      16.60652000  T        2
Mg       9.63000000       7.41317746      16.60652000  T        2
Mg       0.00000000       0.00000000      19.21304000  T        1
Mg       3.21000000       0.00000000      19.21304000  T        1
Mg       6.42000000       0.00000000      19.21304000  T        1
Mg       1.60500000       2.77994155      19.21304000  T        1
Mg       4.81500000       2.77994155      19.21304000  T        1
Mg       8.02500000       2.77994155      19.21304000  T        1
Mg       3.21000000       5.55988309      19.21304000  T        1
Mg       6.42000000       5.55988309      19.21304000  T        1
Mg       9.63000000       5.55988309      19.21304000  T        1
O        0.80250000       1.38997077      20.81304000  T        0
28
Lattice="9.629999999999999 0.0 0.0 4.8149999999999995 8.339824638444142 0.0 0.0 0.0 33.21303999999999" Properties=species:S:1:pos:R:3:move_mask:L:1:tags:I:1 surface_element=Mg miller="_JSON [0, 0, 0, 1]" slab_size="_JSON [3, 3, 3]" vacuum_angstrom=14.0 fixed_layers=1 fixed_atom_indices="_JSON [0, 1, 2, 3, 4, 5, 6, 7, 8]" system_name=mg0001_o_pilot adsorbate=O site=bridge orientation=atom height_angstrom=2.0 structure_id=a2330293e814d720 pbc="T T T"
Mg       0.00000000       0.00000000      14.00000000  F        3
Mg       3.21000000       0.00000000      14.00000000  F        3
Mg       6.42000000       0.00000000      14.00000000  F        3
Mg       1.60500000       2.77994155      14.00000000  F        3
Mg       4.81500000       2.77994155      14.00000000  F        3
Mg       8.02500000       2.77994155      14.00000000  F        3
Mg       3.21000000       5.55988309      14.00000000  F        3
Mg       6.42000000       5.55988309      14.00000000  F        3
Mg       9.63000000       5.55988309      14.00000000  F        3
Mg      -0.00000000       1.85329436      16.60652000  T        2
Mg       3.21000000       1.85329436      16.60652000  T        2
Mg       6.42000000       1.85329436      16.60652000  T        2
Mg       1.60500000       4.63323591      16.60652000  T        2
Mg       4.81500000       4.63323591      16.60652000  T        2
Mg       8.02500000       4.63323591      16.60652000  T        2
Mg       3.21000000       7.41317746      16.60652000  T        2
Mg       6.42000000       7.41317746      16.60652000  T        2
Mg       9.63000000       7.41317746      16.60652000  T        2
Mg       0.00000000       0.00000000      19.21304000  T        1
Mg       3.21000000       0.00000000      19.21304000  T        1
Mg       6.42000000       0.00000000      19.21304000  T        1
Mg       1.60500000       2.77994155      19.21304000  T        1
Mg       4.81500000       2.77994155      19.21304000  T        1
Mg       8.02500000       2.77994155      19.21304000  T        1
Mg       3.21000000       5.55988309      19.21304000  T        1
Mg       6.42000000       5.55988309      19.21304000  T        1
Mg       9.63000000       5.55988309      19.21304000  T        1
O        0.80250000       1.38997077      21.21304000  T        0
28
Lattice="9.629999999999999 0.0 0.0 4.8149999999999995 8.339824638444142 0.0 0.0 0.0 33.21303999999999" Properties=species:S:1:pos:R:3:move_mask:L:1:tags:I:1 surface_element=Mg miller="_JSON [0, 0, 0, 1]" slab_size="_JSON [3, 3, 3]" vacuum_angstrom=14.0 fixed_layers=1 fixed_atom_indices="_JSON [0, 1, 2, 3, 4, 5, 6, 7, 8]" system_name=mg0001_o_pilot adsorbate=O site=bridge orientation=atom height_angstrom=2.4 structure_id=9ed899052c1ede60 pbc="T T T"
Mg       0.00000000       0.00000000      14.00000000  F        3
Mg       3.21000000       0.00000000      14.00000000  F        3
Mg       6.42000000       0.00000000      14.00000000  F        3
Mg       1.60500000       2.77994155      14.00000000  F        3
Mg       4.81500000       2.77994155      14.00000000  F        3
Mg       8.02500000       2.77994155      14.00000000  F        3
Mg       3.21000000       5.55988309      14.00000000  F        3
Mg       6.42000000       5.55988309      14.00000000  F        3
Mg       9.63000000       5.55988309      14.00000000  F        3
Mg      -0.00000000       1.85329436      16.60652000  T        2
Mg       3.21000000       1.85329436      16.60652000  T        2
Mg       6.42000000       1.85329436      16.60652000  T        2
Mg       1.60500000       4.63323591      16.60652000  T        2
Mg       4.81500000       4.63323591      16.60652000  T        2
Mg       8.02500000       4.63323591      16.60652000  T        2
Mg       3.21000000       7.41317746      16.60652000  T        2
Mg       6.42000000       7.41317746      16.60652000  T        2
Mg       9.63000000       7.41317746      16.60652000  T        2
Mg       0.00000000       0.00000000      19.21304000  T        1
Mg       3.21000000       0.00000000      19.21304000  T        1
Mg       6.42000000       0.00000000      19.21304000  T        1
Mg       1.60500000       2.77994155      19.21304000  T        1
Mg       4.81500000       2.77994155      19.21304000  T        1
Mg       8.02500000       2.77994155      19.21304000  T        1
Mg       3.21000000       5.55988309      19.21304000  T        1
Mg       6.42000000       5.55988309      19.21304000  T        1
Mg       9.63000000       5.55988309      19.21304000  T        1
O        0.80250000       1.38997077      21.61304000  T        0
28
Lattice="9.629999999999999 0.0 0.0 4.8149999999999995 8.339824638444142 0.0 0.0 0.0 33.21303999999999" Properties=species:S:1:pos:R:3:move_mask:L:1:tags:I:1 surface_element=Mg miller="_JSON [0, 0, 0, 1]" slab_size="_JSON [3, 3, 3]" vacuum_angstrom=14.0 fixed_layers=1 fixed_atom_indices="_JSON [0, 1, 2, 3, 4, 5, 6, 7, 8]" system_name=mg0001_o_pilot adsorbate=O site=fcc orientation=atom height_angstrom=1.6 structure_id=5d6c0ab5cb071bfa pbc="T T T"
Mg       0.00000000       0.00000000      14.00000000  F        3
Mg       3.21000000       0.00000000      14.00000000  F        3
Mg       6.42000000       0.00000000      14.00000000  F        3
Mg       1.60500000       2.77994155      14.00000000  F        3
Mg       4.81500000       2.77994155      14.00000000  F        3
Mg       8.02500000       2.77994155      14.00000000  F        3
Mg       3.21000000       5.55988309      14.00000000  F        3
Mg       6.42000000       5.55988309      14.00000000  F        3
Mg       9.63000000       5.55988309      14.00000000  F        3
Mg      -0.00000000       1.85329436      16.60652000  T        2
Mg       3.21000000       1.85329436      16.60652000  T        2
Mg       6.42000000       1.85329436      16.60652000  T        2
Mg       1.60500000       4.63323591      16.60652000  T        2
Mg       4.81500000       4.63323591      16.60652000  T        2
Mg       8.02500000       4.63323591      16.60652000  T        2
Mg       3.21000000       7.41317746      16.60652000  T        2
Mg       6.42000000       7.41317746      16.60652000  T        2
Mg       9.63000000       7.41317746      16.60652000  T        2
Mg       0.00000000       0.00000000      19.21304000  T        1
Mg       3.21000000       0.00000000      19.21304000  T        1
Mg       6.42000000       0.00000000      19.21304000  T        1
Mg       1.60500000       2.77994155      19.21304000  T        1
Mg       4.81500000       2.77994155      19.21304000  T        1
Mg       8.02500000       2.77994155      19.21304000  T        1
Mg       3.21000000       5.55988309      19.21304000  T        1
Mg       6.42000000       5.55988309      19.21304000  T        1
Mg       9.63000000       5.55988309      19.21304000  T        1
O        4.81500000       0.92664718      20.81304000  T        0
28
Lattice="9.629999999999999 0.0 0.0 4.8149999999999995 8.339824638444142 0.0 0.0 0.0 33.21303999999999" Properties=species:S:1:pos:R:3:move_mask:L:1:tags:I:1 surface_element=Mg miller="_JSON [0, 0, 0, 1]" slab_size="_JSON [3, 3, 3]" vacuum_angstrom=14.0 fixed_layers=1 fixed_atom_indices="_JSON [0, 1, 2, 3, 4, 5, 6, 7, 8]" system_name=mg0001_o_pilot adsorbate=O site=fcc orientation=atom height_angstrom=2.0 structure_id=7e0cb75306f47f6f pbc="T T T"
Mg       0.00000000       0.00000000      14.00000000  F        3
Mg       3.21000000       0.00000000      14.00000000  F        3
Mg       6.42000000       0.00000000      14.00000000  F        3
Mg       1.60500000       2.77994155      14.00000000  F        3
Mg       4.81500000       2.77994155      14.00000000  F        3
Mg       8.02500000       2.77994155      14.00000000  F        3
Mg       3.21000000       5.55988309      14.00000000  F        3
Mg       6.42000000       5.55988309      14.00000000  F        3
Mg       9.63000000       5.55988309      14.00000000  F        3
Mg      -0.00000000       1.85329436      16.60652000  T        2
Mg       3.21000000       1.85329436      16.60652000  T        2
Mg       6.42000000       1.85329436      16.60652000  T        2
Mg       1.60500000       4.63323591      16.60652000  T        2
Mg       4.81500000       4.63323591      16.60652000  T        2
Mg       8.02500000       4.63323591      16.60652000  T        2
Mg       3.21000000       7.41317746      16.60652000  T        2
Mg       6.42000000       7.41317746      16.60652000  T        2
Mg       9.63000000       7.41317746      16.60652000  T        2
Mg       0.00000000       0.00000000      19.21304000  T        1
Mg       3.21000000       0.00000000      19.21304000  T        1
Mg       6.42000000       0.00000000      19.21304000  T        1
Mg       1.60500000       2.77994155      19.21304000  T        1
Mg       4.81500000       2.77994155      19.21304000  T        1
Mg       8.02500000       2.77994155      19.21304000  T        1
Mg       3.21000000       5.55988309      19.21304000  T        1
Mg       6.42000000       5.55988309      19.21304000  T        1
Mg       9.63000000       5.55988309      19.21304000  T        1
O        4.81500000       0.92664718      21.21304000  T        0
28
Lattice="9.629999999999999 0.0 0.0 4.8149999999999995 8.339824638444142 0.0 0.0 0.0 33.21303999999999" Properties=species:S:1:pos:R:3:move_mask:L:1:tags:I:1 surface_element=Mg miller="_JSON [0, 0, 0, 1]" slab_size="_JSON [3, 3, 3]" vacuum_angstrom=14.0 fixed_layers=1 fixed_atom_indices="_JSON [0, 1, 2, 3, 4, 5, 6, 7, 8]" system_name=mg0001_o_pilot adsorbate=O site=fcc orientation=atom height_angstrom=2.4 structure_id=3495ef2ffd6cb58f pbc="T T T"
Mg       0.00000000       0.00000000      14.00000000  F        3
Mg       3.21000000       0.00000000      14.00000000  F        3
Mg       6.42000000       0.00000000      14.00000000  F        3
Mg       1.60500000       2.77994155      14.00000000  F        3
Mg       4.81500000       2.77994155      14.00000000  F        3
Mg       8.02500000       2.77994155      14.00000000  F        3
Mg       3.21000000       5.55988309      14.00000000  F        3
Mg       6.42000000       5.55988309      14.00000000  F        3
Mg       9.63000000       5.55988309      14.00000000  F        3
Mg      -0.00000000       1.85329436      16.60652000  T        2
Mg       3.21000000       1.85329436      16.60652000  T        2
Mg       6.42000000       1.85329436      16.60652000  T        2
Mg       1.60500000       4.63323591      16.60652000  T        2
Mg       4.81500000       4.63323591      16.60652000  T        2
Mg       8.02500000       4.63323591      16.60652000  T        2
Mg       3.21000000       7.41317746      16.60652000  T        2
Mg       6.42000000       7.41317746      16.60652000  T        2
Mg       9.63000000       7.41317746      16.60652000  T        2
Mg       0.00000000       0.00000000      19.21304000  T        1
Mg       3.21000000       0.00000000      19.21304000  T        1
Mg       6.42000000       0.00000000      19.21304000  T        1
Mg       1.60500000       2.77994155      19.21304000  T        1
Mg       4.81500000       2.77994155      19.21304000  T        1
Mg       8.02500000       2.77994155      19.21304000  T        1
Mg       3.21000000       5.55988309      19.21304000  T        1
Mg       6.42000000       5.55988309      19.21304000  T        1
Mg       9.63000000       5.55988309      19.21304000  T        1
O        4.81500000       0.92664718      21.61304000  T        0
28
Lattice="9.629999999999999 0.0 0.0 4.8149999999999995 8.339824638444142 0.0 0.0 0.0 33.21303999999999" Properties=species:S:1:pos:R:3:move_mask:L:1:tags:I:1 surface_element=Mg miller="_JSON [0, 0, 0, 1]" slab_size="_JSON [3, 3, 3]" vacuum_angstrom=14.0 fixed_layers=1 fixed_atom_indices="_JSON [0, 1, 2, 3, 4, 5, 6, 7, 8]" system_name=mg0001_o_pilot adsorbate=O site=hcp orientation=atom height_angstrom=1.6 structure_id=26610f4a86dc91d1 pbc="T T T"
Mg       0.00000000       0.00000000      14.00000000  F        3
Mg       3.21000000       0.00000000      14.00000000  F        3
Mg       6.42000000       0.00000000      14.00000000  F        3
Mg       1.60500000       2.77994155      14.00000000  F        3
Mg       4.81500000       2.77994155      14.00000000  F        3
Mg       8.02500000       2.77994155      14.00000000  F        3
Mg       3.21000000       5.55988309      14.00000000  F        3
Mg       6.42000000       5.55988309      14.00000000  F        3
Mg       9.63000000       5.55988309      14.00000000  F        3
Mg      -0.00000000       1.85329436      16.60652000  T        2
Mg       3.21000000       1.85329436      16.60652000  T        2
Mg       6.42000000       1.85329436      16.60652000  T        2
Mg       1.60500000       4.63323591      16.60652000  T        2
Mg       4.81500000       4.63323591      16.60652000  T        2
Mg       8.02500000       4.63323591      16.60652000  T        2
Mg       3.21000000       7.41317746      16.60652000  T        2
Mg       6.42000000       7.41317746      16.60652000  T        2
Mg       9.63000000       7.41317746      16.60652000  T        2
Mg       0.00000000       0.00000000      19.21304000  T        1
Mg       3.21000000       0.00000000      19.21304000  T        1
Mg       6.42000000       0.00000000      19.21304000  T        1
Mg       1.60500000       2.77994155      19.21304000  T        1
Mg       4.81500000       2.77994155      19.21304000  T        1
Mg       8.02500000       2.77994155      19.21304000  T        1
Mg       3.21000000       5.55988309      19.21304000  T        1
Mg       6.42000000       5.55988309      19.21304000  T        1
Mg       9.63000000       5.55988309      19.21304000  T        1
O        5.88500000       0.92664718      20.81304000  T        0
28
Lattice="9.629999999999999 0.0 0.0 4.8149999999999995 8.339824638444142 0.0 0.0 0.0 33.21303999999999" Properties=species:S:1:pos:R:3:move_mask:L:1:tags:I:1 surface_element=Mg miller="_JSON [0, 0, 0, 1]" slab_size="_JSON [3, 3, 3]" vacuum_angstrom=14.0 fixed_layers=1 fixed_atom_indices="_JSON [0, 1, 2, 3, 4, 5, 6, 7, 8]" system_name=mg0001_o_pilot adsorbate=O site=hcp orientation=atom height_angstrom=2.0 structure_id=636c3943e12895cb pbc="T T T"
Mg       0.00000000       0.00000000      14.00000000  F        3
Mg       3.21000000       0.00000000      14.00000000  F        3
Mg       6.42000000       0.00000000      14.00000000  F        3
Mg       1.60500000       2.77994155      14.00000000  F        3
Mg       4.81500000       2.77994155      14.00000000  F        3
Mg       8.02500000       2.77994155      14.00000000  F        3
Mg       3.21000000       5.55988309      14.00000000  F        3
Mg       6.42000000       5.55988309      14.00000000  F        3
Mg       9.63000000       5.55988309      14.00000000  F        3
Mg      -0.00000000       1.85329436      16.60652000  T        2
Mg       3.21000000       1.85329436      16.60652000  T        2
Mg       6.42000000       1.85329436      16.60652000  T        2
Mg       1.60500000       4.63323591      16.60652000  T        2
Mg       4.81500000       4.63323591      16.60652000  T        2
Mg       8.02500000       4.63323591      16.60652000  T        2
Mg       3.21000000       7.41317746      16.60652000  T        2
Mg       6.42000000       7.41317746      16.60652000  T        2
Mg       9.63000000       7.41317746      16.60652000  T        2
Mg       0.00000000       0.00000000      19.21304000  T        1
Mg       3.21000000       0.00000000      19.21304000  T        1
Mg       6.42000000       0.00000000      19.21304000  T        1
Mg       1.60500000       2.77994155      19.21304000  T        1
Mg       4.81500000       2.77994155      19.21304000  T        1
Mg       8.02500000       2.77994155      19.21304000  T        1
Mg       3.21000000       5.55988309      19.21304000  T        1
Mg       6.42000000       5.55988309      19.21304000  T        1
Mg       9.63000000       5.55988309      19.21304000  T        1
O        5.88500000       0.92664718      21.21304000  T        0
28
Lattice="9.629999999999999 0.0 0.0 4.8149999999999995 8.339824638444142 0.0 0.0 0.0 33.21303999999999" Properties=species:S:1:pos:R:3:move_mask:L:1:tags:I:1 surface_element=Mg miller="_JSON [0, 0, 0, 1]" slab_size="_JSON [3, 3, 3]" vacuum_angstrom=14.0 fixed_layers=1 fixed_atom_indices="_JSON [0, 1, 2, 3, 4, 5, 6, 7, 8]" system_name=mg0001_o_pilot adsorbate=O site=hcp orientation=atom height_angstrom=2.4 structure_id=76c2512dfce874bd pbc="T T T"
Mg       0.00000000       0.00000000      14.00000000  F        3
Mg       3.21000000       0.00000000      14.00000000  F        3
Mg       6.42000000       0.00000000      14.00000000  F        3
Mg       1.60500000       2.77994155      14.00000000  F        3
Mg       4.81500000       2.77994155      14.00000000  F        3
Mg       8.02500000       2.77994155      14.00000000  F        3
Mg       3.21000000       5.55988309      14.00000000  F        3
Mg       6.42000000       5.55988309      14.00000000  F        3
Mg       9.63000000       5.55988309      14.00000000  F        3
Mg      -0.00000000       1.85329436      16.60652000  T        2
Mg       3.21000000       1.85329436      16.60652000  T        2
Mg       6.42000000       1.85329436      16.60652000  T        2
Mg       1.60500000       4.63323591      16.60652000  T        2
Mg       4.81500000       4.63323591      16.60652000  T        2
Mg       8.02500000       4.63323591      16.60652000  T        2
Mg       3.21000000       7.41317746      16.60652000  T        2
Mg       6.42000000       7.41317746      16.60652000  T        2
Mg       9.63000000       7.41317746      16.60652000  T        2
Mg       0.00000000       0.00000000      19.21304000  T        1
Mg       3.21000000       0.00000000      19.21304000  T        1
Mg       6.42000000       0.00000000      19.21304000  T        1
Mg       1.60500000       2.77994155      19.21304000  T        1
Mg       4.81500000       2.77994155      19.21304000  T        1
Mg       8.02500000       2.77994155      19.21304000  T        1
Mg       3.21000000       5.55988309      19.21304000  T        1
Mg       6.42000000       5.55988309      19.21304000  T        1
Mg       9.63000000       5.55988309      19.21304000  T        1
O        5.88500000       0.92664718      21.61304000  T        0
